*SPEF "ieee 1481-1999"
*DESIGN "u_s_r"
*DATE "20:26:50 Wednesday June 03, 2026"
*VENDOR "The OpenROAD Project"
*PROGRAM "OpenROAD"
*VERSION "dcf36133a369abc8f3c5e5738cd4d82e4903c0e0"
*DESIGN_FLOW "NAME_SCOPE LOCAL" "PIN_CAP NONE"
*DIVIDER /
*DELIMITER :
*BUS_DELIMITER []
*T_UNIT 1 NS
*C_UNIT 1 PF
*R_UNIT 1 OHM
*L_UNIT 1 HENRY

*NAME_MAP
*1 D[0]
*2 D[1]
*3 D[2]
*4 D[3]
*5 Q[0]
*6 Q[1]
*7 Q[2]
*8 Q[3]
*9 S_in
*12 clk
*13 mode[0]
*14 mode[1]
*15 rst
*16 _00_
*17 _01_
*18 _02_
*19 _03_
*20 _04_
*21 _05_
*22 _06_
*23 _07_
*24 _08_
*25 _09_
*26 _10_
*27 _11_
*28 _12_
*29 _13_
*30 _14_
*31 _15_
*32 _16_
*33 _17_
*34 _18_
*35 _19_
*36 clknet_0_clk
*37 clknet_1_0__leaf_clk
*38 clknet_1_1__leaf_clk
*39 net1
*40 net10
*41 net11
*42 net12
*43 net13
*44 net14
*45 net15
*46 net16
*47 net17
*48 net18
*49 net19
*50 net2
*51 net3
*52 net4
*53 net5
*54 net6
*55 net7
*56 net8
*57 net9
*58 FILLER_0_29
*59 FILLER_0_3
*60 FILLER_0_6
*61 FILLER_0_62
*62 FILLER_0_9
*63 FILLER_10_12
*64 FILLER_10_15
*65 FILLER_10_18
*66 FILLER_10_21
*67 FILLER_10_24
*68 FILLER_10_27
*69 FILLER_10_29
*70 FILLER_10_3
*71 FILLER_10_40
*72 FILLER_10_6
*73 FILLER_10_70
*74 FILLER_10_9
*75 FILLER_11_12
*76 FILLER_11_15
*77 FILLER_11_18
*78 FILLER_11_21
*79 FILLER_11_24
*80 FILLER_11_27
*81 FILLER_11_29
*82 FILLER_11_3
*83 FILLER_11_32
*84 FILLER_11_50
*85 FILLER_11_53
*86 FILLER_11_6
*87 FILLER_11_65
*88 FILLER_11_68
*89 FILLER_11_71
*90 FILLER_11_9
*91 FILLER_1_20
*92 FILLER_1_3
*93 FILLER_1_54
*94 FILLER_1_57
*95 FILLER_1_6
*96 FILLER_1_68
*97 FILLER_1_71
*98 FILLER_1_9
*99 FILLER_2_12
*100 FILLER_2_15
*101 FILLER_2_18
*102 FILLER_2_29
*103 FILLER_2_3
*104 FILLER_2_32
*105 FILLER_2_6
*106 FILLER_2_9
*107 FILLER_3_12
*108 FILLER_3_15
*109 FILLER_3_18
*110 FILLER_3_21
*111 FILLER_3_28
*112 FILLER_3_3
*113 FILLER_3_55
*114 FILLER_3_6
*115 FILLER_3_68
*116 FILLER_3_71
*117 FILLER_3_9
*118 FILLER_4_12
*119 FILLER_4_15
*120 FILLER_4_18
*121 FILLER_4_21
*122 FILLER_4_24
*123 FILLER_4_27
*124 FILLER_4_29
*125 FILLER_4_3
*126 FILLER_4_37
*127 FILLER_4_6
*128 FILLER_4_71
*129 FILLER_4_9
*130 FILLER_5_12
*131 FILLER_5_15
*132 FILLER_5_18
*133 FILLER_5_21
*134 FILLER_5_24
*135 FILLER_5_27
*136 FILLER_5_3
*137 FILLER_5_30
*138 FILLER_5_33
*139 FILLER_5_36
*140 FILLER_5_39
*141 FILLER_5_42
*142 FILLER_5_45
*143 FILLER_5_57
*144 FILLER_5_6
*145 FILLER_5_60
*146 FILLER_5_63
*147 FILLER_5_9
*148 FILLER_6_12
*149 FILLER_6_15
*150 FILLER_6_18
*151 FILLER_6_21
*152 FILLER_6_24
*153 FILLER_6_27
*154 FILLER_6_29
*155 FILLER_6_3
*156 FILLER_6_32
*157 FILLER_6_35
*158 FILLER_6_38
*159 FILLER_6_45
*160 FILLER_6_48
*161 FILLER_6_6
*162 FILLER_6_70
*163 FILLER_6_9
*164 FILLER_7_12
*165 FILLER_7_15
*166 FILLER_7_18
*167 FILLER_7_21
*168 FILLER_7_24
*169 FILLER_7_27
*170 FILLER_7_3
*171 FILLER_7_30
*172 FILLER_7_33
*173 FILLER_7_36
*174 FILLER_7_55
*175 FILLER_7_6
*176 FILLER_7_65
*177 FILLER_7_68
*178 FILLER_7_71
*179 FILLER_7_9
*180 FILLER_8_12
*181 FILLER_8_15
*182 FILLER_8_18
*183 FILLER_8_21
*184 FILLER_8_24
*185 FILLER_8_27
*186 FILLER_8_29
*187 FILLER_8_3
*188 FILLER_8_52
*189 FILLER_8_6
*190 FILLER_8_71
*191 FILLER_8_9
*192 FILLER_9_12
*193 FILLER_9_15
*194 FILLER_9_18
*195 FILLER_9_21
*196 FILLER_9_24
*197 FILLER_9_27
*198 FILLER_9_3
*199 FILLER_9_30
*200 FILLER_9_33
*201 FILLER_9_57
*202 FILLER_9_6
*203 FILLER_9_67
*204 FILLER_9_70
*205 FILLER_9_9
*206 PHY_EDGE_ROW_0_Left_12
*207 PHY_EDGE_ROW_0_Right_0
*208 PHY_EDGE_ROW_10_Left_22
*209 PHY_EDGE_ROW_10_Right_10
*210 PHY_EDGE_ROW_11_Left_23
*211 PHY_EDGE_ROW_11_Right_11
*212 PHY_EDGE_ROW_1_Left_13
*213 PHY_EDGE_ROW_1_Right_1
*214 PHY_EDGE_ROW_2_Left_14
*215 PHY_EDGE_ROW_2_Right_2
*216 PHY_EDGE_ROW_3_Left_15
*217 PHY_EDGE_ROW_3_Right_3
*218 PHY_EDGE_ROW_4_Left_16
*219 PHY_EDGE_ROW_4_Right_4
*220 PHY_EDGE_ROW_5_Left_17
*221 PHY_EDGE_ROW_5_Right_5
*222 PHY_EDGE_ROW_6_Left_18
*223 PHY_EDGE_ROW_6_Right_6
*224 PHY_EDGE_ROW_7_Left_19
*225 PHY_EDGE_ROW_7_Right_7
*226 PHY_EDGE_ROW_8_Left_20
*227 PHY_EDGE_ROW_8_Right_8
*228 PHY_EDGE_ROW_9_Left_21
*229 PHY_EDGE_ROW_9_Right_9
*230 TAP_TAPCELL_ROW_0_24
*231 TAP_TAPCELL_ROW_0_25
*232 TAP_TAPCELL_ROW_10_35
*233 TAP_TAPCELL_ROW_11_36
*234 TAP_TAPCELL_ROW_11_37
*235 TAP_TAPCELL_ROW_1_26
*236 TAP_TAPCELL_ROW_2_27
*237 TAP_TAPCELL_ROW_3_28
*238 TAP_TAPCELL_ROW_4_29
*239 TAP_TAPCELL_ROW_5_30
*240 TAP_TAPCELL_ROW_6_31
*241 TAP_TAPCELL_ROW_7_32
*242 TAP_TAPCELL_ROW_8_33
*243 TAP_TAPCELL_ROW_9_34
*244 _20_
*245 _21_
*246 _22_
*247 _23_
*248 _24_
*249 _25_
*250 _26_
*251 _27_
*252 _28_
*253 _29_
*254 _30_
*255 _31_
*256 _32_
*257 _33_
*258 _34_
*259 _35_
*260 _36_
*261 _37_
*262 _38_
*263 _39_
*264 _40_
*265 _41_
*266 _42_
*267 _43_
*268 clkbuf_0_clk
*269 clkbuf_1_0__f_clk
*270 clkbuf_1_1__f_clk
*271 hold13
*272 hold14
*273 hold15
*274 hold16
*275 hold17
*276 hold18
*277 hold19
*278 input1
*279 input2
*280 input3
*281 input4
*282 input5
*283 input6
*284 input7
*285 input8
*286 output10
*287 output11
*288 output12
*289 output9

*PORTS
D[0] I
D[1] I
D[2] I
D[3] I
Q[0] O
Q[1] O
Q[2] O
Q[3] O
S_in I
clk I
mode[0] I
mode[1] I
rst I

*D_NET *1 0.00263795
*CONN
*P D[0] I
*I *278:A I *D sky130_fd_sc_hd__clkdlybuf4s25_1
*CAP
1 D[0] 0.000657272
2 *278:A 0.000657272
3 *278:A *250:B1 0.000244259
4 *278:A *260:C 0
5 *278:A *262:A1 0
6 *278:A *273:A 0.000171776
7 *278:A *280:A 0.000463335
8 *278:A *282:A 0.00040979
9 *278:A *289:A 3.42426e-05
*RES
1 D[0] *278:A 30.8893 
*END

*D_NET *2 0.00120361
*CONN
*P D[1] I
*I *279:A I *D sky130_fd_sc_hd__clkdlybuf4s25_1
*CAP
1 D[1] 0.000435295
2 *279:A 0.000435295
3 *279:A *245:A 0
4 *279:A *252:C 6.05161e-06
5 *279:A *285:A 0.000326967
*RES
1 D[1] *279:A 24.2464 
*END

*D_NET *3 0.00242146
*CONN
*P D[2] I
*I *280:A I *D sky130_fd_sc_hd__clkdlybuf4s25_1
*CAP
1 D[2] 0.000722201
2 *280:A 0.000722201
3 *280:A *260:C 0
4 *280:A *282:A 0.000212969
5 *280:A *283:A 0.000134184
6 *280:A *284:A 0
7 *280:A *53:12 0.000154762
8 *280:A *54:10 1.18064e-05
9 *278:A *280:A 0.000463335
*RES
1 D[2] *280:A 39.2821 
*END

*D_NET *4 0.000928773
*CONN
*P D[3] I
*I *281:A I *D sky130_fd_sc_hd__clkdlybuf4s25_1
*CAP
1 D[3] 0.000321328
2 *281:A 0.000321328
3 *281:A *250:B1 1.00332e-05
4 *281:A *262:B1 1.08936e-05
5 *281:A *282:A 0.00026519
*RES
1 D[3] *281:A 21.675 
*END

*D_NET *5 0.0011784
*CONN
*P Q[0] O
*I *289:X O *D sky130_fd_sc_hd__clkdlybuf4s25_1
*CAP
1 Q[0] 0.000508452
2 *289:X 0.000508452
3 Q[0] *40:14 0.0001615
*RES
1 *289:X Q[0] 22.1981 
*END

*D_NET *6 0.00263334
*CONN
*P Q[1] O
*I *286:X O *D sky130_fd_sc_hd__clkdlybuf4s25_1
*CAP
1 Q[1] 0.000856679
2 *286:X 0.000856679
3 Q[1] Q[3] 0.000399701
4 Q[1] *254:B2 0.000304537
5 Q[1] *267:CLK 0.000161858
6 Q[1] *36:19 5.38886e-05
*RES
1 *286:X Q[1] 23.3512 
*END

*D_NET *7 0.0015676
*CONN
*P Q[2] O
*I *287:X O *D sky130_fd_sc_hd__clkdlybuf4s25_1
*CAP
1 Q[2] 0.000634417
2 *287:X 0.000634417
3 Q[2] *12:10 0.000298761
*RES
1 *287:X Q[2] 25.0143 
*END

*D_NET *8 0.00199046
*CONN
*P Q[3] O
*I *288:X O *D sky130_fd_sc_hd__clkdlybuf4s25_1
*CAP
1 Q[3] 0.000600973
2 *288:X 0.000600973
3 Q[3] *288:A 0.000121606
4 Q[3] *42:8 0.000267204
5 Q[1] Q[3] 0.000399701
*RES
1 *288:X Q[3] 27.3588 
*END

*D_NET *9 0.00184469
*CONN
*P S_in I
*I *282:A I *D sky130_fd_sc_hd__clkdlybuf4s25_1
*CAP
1 S_in 0.000329144
2 *282:A 0.000329144
3 *282:A *248:A 0.000199413
4 *282:A *283:A 9.90367e-05
5 *278:A *282:A 0.00040979
6 *280:A *282:A 0.000212969
7 *281:A *282:A 0.00026519
*RES
1 S_in *282:A 25.7821 
*END

*D_NET *12 0.00268145
*CONN
*P clk I
*I *268:A I *D sky130_fd_sc_hd__clkbuf_16
*CAP
1 clk 0.000776998
2 *268:A 0
3 *12:10 0.000776998
4 *12:10 *254:A2_N 5.03331e-05
5 *12:10 *255:B2 0
6 *12:10 *259:A2 0
7 *12:10 *259:B1 0.000110113
8 *12:10 *259:C1 0.000403113
9 *12:10 *287:A 0
10 *12:10 *25:38 0
11 *12:10 *36:19 2.15121e-05
12 *12:10 *36:31 0.000243618
13 Q[2] *12:10 0.000298761
*RES
1 clk *12:10 20.2857 
2 *12:10 *268:A 13.8 
*END

*D_NET *13 0.00156429
*CONN
*P mode[0] I
*I *283:A I *D sky130_fd_sc_hd__clkdlybuf4s25_1
*CAP
1 mode[0] 0.000313072
2 *283:A 0.000313072
3 *283:A *248:A 0.000359997
4 *283:A *284:A 0.000245893
5 *283:A *54:6 9.90367e-05
6 *280:A *283:A 0.000134184
7 *282:A *283:A 9.90367e-05
*RES
1 mode[0] *283:A 24.0143 
*END

*D_NET *14 0.00207581
*CONN
*P mode[1] I
*I *284:A I *D sky130_fd_sc_hd__clkdlybuf4s25_1
*CAP
1 mode[1] 0.000549773
2 *284:A 0.000549773
3 *284:A *247:B 0
4 *284:A *256:C 0
5 *284:A *257:A_N 5.52238e-05
6 *284:A *258:C1 5.33334e-05
7 *284:A *260:C 0.000621816
8 *284:A *54:10 0
9 *280:A *284:A 0
10 *283:A *284:A 0.000245893
*RES
1 mode[1] *284:A 28.1929 
*END

*D_NET *15 0.000902266
*CONN
*P rst I
*I *285:A I *D sky130_fd_sc_hd__clkdlybuf4s25_1
*CAP
1 rst 0.00028765
2 *285:A 0.00028765
3 *279:A *285:A 0.000326967
*RES
1 rst *285:A 21.5143 
*END

*D_NET *16 0.000367176
*CONN
*I *274:A I *D sky130_fd_sc_hd__dlygate4sd3_1
*I *251:X O *D sky130_fd_sc_hd__o221a_2
*CAP
1 *274:A 0.000100871
2 *251:X 0.000100871
3 *274:A *250:A1 0
4 *274:A *258:B1 7.83366e-05
5 *274:A *264:D 0
6 *274:A *20:25 5.52302e-05
7 *274:A *24:12 3.18676e-05
*RES
1 *251:X *274:A 30.0821 
*END

*D_NET *17 0.00144372
*CONN
*I *276:A I *D sky130_fd_sc_hd__dlygate4sd3_1
*I *255:X O *D sky130_fd_sc_hd__o221a_2
*CAP
1 *276:A 0.00056129
2 *255:X 0.00056129
3 *276:A *255:A1 0.000304705
4 *276:A *257:C 0
5 *276:A *265:D 1.64343e-05
6 *276:A *40:14 0
*RES
1 *255:X *276:A 35.1179 
*END

*D_NET *18 0.00152511
*CONN
*I *266:D I *D sky130_fd_sc_hd__dfxtp_2
*I *259:X O *D sky130_fd_sc_hd__o211a_2
*CAP
1 *266:D 0.000466868
2 *259:X 0.000466868
3 *266:D *259:A1 6.72125e-05
4 *266:D *259:A2 0.000237611
5 *266:D *259:B1 4.33002e-05
6 *266:D *259:C1 0.000243246
*RES
1 *259:X *266:D 37.1402 
*END

*D_NET *19 0.00119504
*CONN
*I *272:A I *D sky130_fd_sc_hd__dlygate4sd3_1
*I *263:X O *D sky130_fd_sc_hd__o221a_2
*CAP
1 *272:A 0.000520929
2 *263:X 0.000520929
3 *272:A *244:A 1.38167e-05
4 *272:A *254:B1 0
5 *272:A *267:D 1.64343e-05
6 *272:A *289:A 0.000122933
*RES
1 *263:X *272:A 33.8857 
*END

*D_NET *20 0.006636
*CONN
*I *254:B1 I *D sky130_fd_sc_hd__o2bb2a_2
*I *250:A2 I *D sky130_fd_sc_hd__a211o_2
*I *262:A1 I *D sky130_fd_sc_hd__a211o_2
*I *258:A2 I *D sky130_fd_sc_hd__a2111o_2
*I *244:Y O *D sky130_fd_sc_hd__inv_2
*CAP
1 *254:B1 0.000510289
2 *250:A2 0
3 *262:A1 0.000450277
4 *258:A2 5.59448e-05
5 *244:Y 0.000143651
6 *20:25 0.00097575
7 *20:15 0.00103576
8 *20:6 0.000199596
9 *254:B1 *244:A 1.03483e-05
10 *254:B1 *254:B2 6.03578e-05
11 *254:B1 *257:C 0.00072019
12 *254:B1 *289:A 0
13 *254:B1 *43:12 3.06466e-05
14 *258:A2 *258:B1 5.33005e-05
15 *258:A2 *43:12 0.000225616
16 *258:A2 *55:101 8.86413e-05
17 *262:A1 *250:A1 6.02811e-05
18 *262:A1 *251:B2 0.000463792
19 *262:A1 *260:C 4.48583e-05
20 *262:A1 *262:B1 7.55063e-05
21 *262:A1 *263:B2 2.84026e-05
22 *262:A1 *273:A 1.00399e-05
23 *20:6 *244:A 9.76689e-05
24 *20:6 *43:12 5.33005e-05
25 *20:6 *55:101 3.97677e-05
26 *20:25 *248:B 0.000118105
27 *20:25 *250:A1 9.90431e-05
28 *20:25 *251:B1 1.74352e-05
29 *20:25 *254:B2 0.000128043
30 *20:25 *258:B1 0
31 *20:25 *24:8 0.000186669
32 *20:25 *24:12 0.000282309
33 *20:25 *43:12 0.000315172
34 *272:A *254:B1 0
35 *274:A *20:25 5.52302e-05
36 *278:A *262:A1 0
*RES
1 *244:Y *20:6 12.3 
2 *20:6 *258:A2 11.4786 
3 *20:6 *20:15 4.5 
4 *20:15 *20:25 18.4464 
5 *20:25 *262:A1 35.05 
6 *20:25 *250:A2 9.3 
7 *20:15 *254:B1 25.8179 
*END

*D_NET *21 0.00602346
*CONN
*I *259:C1 I *D sky130_fd_sc_hd__o211a_2
*I *255:C1 I *D sky130_fd_sc_hd__o221a_2
*I *263:C1 I *D sky130_fd_sc_hd__o221a_2
*I *251:C1 I *D sky130_fd_sc_hd__o221a_2
*I *245:Y O *D sky130_fd_sc_hd__inv_2
*CAP
1 *259:C1 0.000519434
2 *255:C1 6.25329e-05
3 *263:C1 0
4 *251:C1 0.000314968
5 *245:Y 8.74756e-05
6 *21:18 0.000804755
7 *21:10 0.000617318
8 *21:6 0.000671908
9 *251:C1 *250:A1 0.000458043
10 *251:C1 *259:B1 2.06112e-05
11 *251:C1 *262:B1 1.00399e-05
12 *251:C1 *263:B1 1.02504e-05
13 *255:C1 *254:A2_N 0.000121352
14 *255:C1 *255:B1 0.00016874
15 *259:C1 *259:A2 4.4973e-05
16 *259:C1 *259:B1 2.72545e-05
17 *21:10 *252:B 4.48383e-05
18 *21:10 *252:C 0
19 *21:10 *41:8 0.000121842
20 *21:18 *252:B 3.27526e-05
21 *21:18 *260:A 0.000240368
22 *21:18 *260:B 7.57394e-05
23 *21:18 *261:C 0.000124869
24 *21:18 *25:16 1.32056e-05
25 *21:18 *41:8 2.27129e-05
26 *21:18 *55:30 5.71124e-05
27 *21:18 *55:48 0.000290029
28 *21:18 *55:59 0.000170575
29 *21:18 *55:70 0.0002434
30 *266:D *259:C1 0.000243246
31 *12:10 *259:C1 0.000403113
*RES
1 *245:Y *21:6 10.2464 
2 *21:6 *21:10 6.14286 
3 *21:10 *21:18 17.3571 
4 *21:18 *251:C1 25.4071 
5 *21:18 *263:C1 9.3 
6 *21:10 *255:C1 16.1214 
7 *21:6 *259:C1 28.9786 
*END

*D_NET *22 0.00232525
*CONN
*I *250:B1 I *D sky130_fd_sc_hd__a211o_2
*I *246:X O *D sky130_fd_sc_hd__and3_2
*CAP
1 *250:B1 0.00050385
2 *246:X 0.00050385
3 *250:B1 *260:C 0.000182592
4 *250:B1 *262:B1 0.00019208
5 *250:B1 *262:C1 0.000493639
6 *250:B1 *55:30 0.000194941
7 *278:A *250:B1 0.000244259
8 *281:A *250:B1 1.00332e-05
*RES
1 *246:X *250:B1 39.6714 
*END

*D_NET *23 0.00160417
*CONN
*I *251:B2 I *D sky130_fd_sc_hd__o221a_2
*I *247:X O *D sky130_fd_sc_hd__and3b_2
*CAP
1 *251:B2 0.000411349
2 *247:X 0.000411349
3 *251:B2 *251:B1 6.26774e-06
4 *251:B2 *262:A2 8.37104e-05
5 *251:B2 *262:B1 4.1518e-05
6 *251:B2 *262:C1 9.80904e-05
7 *251:B2 *263:B2 3.19218e-05
8 *251:B2 *45:8 5.61699e-05
9 *262:A1 *251:B2 0.000463792
*RES
1 *247:X *251:B2 27.7786 
*END

*D_NET *24 0.00465545
*CONN
*I *258:B1 I *D sky130_fd_sc_hd__a2111o_2
*I *262:B1 I *D sky130_fd_sc_hd__a211o_2
*I *250:C1 I *D sky130_fd_sc_hd__a211o_2
*I *248:Y O *D sky130_fd_sc_hd__nor2_2
*CAP
1 *258:B1 0.00033068
2 *262:B1 0.000230257
3 *250:C1 6.76397e-05
4 *248:Y 8.52841e-05
5 *24:12 0.000419385
6 *24:8 0.000537453
7 *250:C1 *248:A 9.77118e-05
8 *250:C1 *250:A1 2.47631e-06
9 *258:B1 *251:A2 0
10 *258:B1 *254:B2 0.000338351
11 *258:B1 *263:A1 2.89016e-05
12 *258:B1 *264:D 0
13 *258:B1 *267:CLK 0.000146474
14 *258:B1 *36:19 1.91418e-05
15 *258:B1 *43:12 3.8274e-05
16 *258:B1 *55:101 0.00018077
17 *262:B1 *262:A2 1.3701e-05
18 *262:B1 *262:C1 0.000191704
19 *262:B1 *263:B2 0.000305191
20 *24:8 *248:A 3.48705e-05
21 *24:8 *248:B 1.33343e-05
22 *24:12 *248:A 0.000587664
23 *24:12 *250:A1 2.36643e-05
24 *250:B1 *262:B1 0.00019208
25 *251:B2 *262:B1 4.1518e-05
26 *251:C1 *262:B1 1.00399e-05
27 *258:A2 *258:B1 5.33005e-05
28 *262:A1 *262:B1 7.55063e-05
29 *274:A *258:B1 7.83366e-05
30 *274:A *24:12 3.18676e-05
31 *281:A *262:B1 1.08936e-05
32 *20:25 *258:B1 0
33 *20:25 *24:8 0.000186669
34 *20:25 *24:12 0.000282309
*RES
1 *248:Y *24:8 11.9071 
2 *24:8 *24:12 6.19643 
3 *24:12 *250:C1 10.675 
4 *24:12 *262:B1 25.1929 
5 *24:8 *258:B1 27.3 
*END

*D_NET *25 0.00445563
*CONN
*I *259:A2 I *D sky130_fd_sc_hd__o211a_2
*I *255:A2 I *D sky130_fd_sc_hd__o221a_2
*I *263:A2 I *D sky130_fd_sc_hd__o221a_2
*I *251:A2 I *D sky130_fd_sc_hd__o221a_2
*I *249:X O *D sky130_fd_sc_hd__or2_2
*CAP
1 *259:A2 0.000316708
2 *255:A2 4.9058e-05
3 *263:A2 0
4 *251:A2 0.000236125
5 *249:X 4.02076e-05
6 *25:38 0.00066197
7 *25:16 0.000585917
8 *25:8 0.000686204
9 *251:A2 *250:A1 1.31516e-05
10 *251:A2 *263:A1 0.000175519
11 *251:A2 *263:B2 0.00037882
12 *251:A2 *264:D 0.000150625
13 *251:A2 *36:19 9.36243e-05
14 *255:A2 *254:A2_N 1.92905e-05
15 *255:A2 *255:B1 1.55322e-05
16 *259:A2 *259:B1 9.23805e-05
17 *25:16 *263:B1 0.000417578
18 *25:38 *255:B2 0.000126882
19 *25:38 *263:B1 0.000100248
20 *258:B1 *251:A2 0
21 *259:C1 *259:A2 4.4973e-05
22 *266:D *259:A2 0.000237611
23 *12:10 *259:A2 0
24 *12:10 *25:38 0
25 *21:18 *25:16 1.32056e-05
*RES
1 *249:X *25:8 14.3357 
2 *25:8 *25:16 11.6786 
3 *25:16 *251:A2 25.7107 
4 *25:16 *263:A2 9.3 
5 *25:8 *25:38 5.64286 
6 *25:38 *255:A2 14.7643 
7 *25:38 *259:A2 20.9071 
*END

*D_NET *26 0.000532739
*CONN
*I *251:B1 I *D sky130_fd_sc_hd__o221a_2
*I *250:X O *D sky130_fd_sc_hd__a211o_2
*CAP
1 *251:B1 9.5284e-05
2 *250:X 9.5284e-05
3 *251:B1 *250:A1 0.000156677
4 *251:B1 *264:D 0.000148911
5 *251:B1 *45:8 1.28809e-05
6 *251:B2 *251:B1 6.26774e-06
7 *20:25 *251:B1 1.74352e-05
*RES
1 *250:X *251:B1 30.2116 
*END

*D_NET *27 0.00100313
*CONN
*I *255:B1 I *D sky130_fd_sc_hd__o221a_2
*I *252:X O *D sky130_fd_sc_hd__and3_2
*CAP
1 *255:B1 0.000288293
2 *252:X 0.000288293
3 *255:B1 *252:B 0.000185118
4 *255:B1 *253:A_N 2.84026e-05
5 *255:B1 *254:A2_N 2.87497e-05
6 *255:A2 *255:B1 1.55322e-05
7 *255:C1 *255:B1 0.00016874
*RES
1 *252:X *255:B1 24.8277 
*END

*D_NET *28 0.000968128
*CONN
*I *254:A2_N I *D sky130_fd_sc_hd__o2bb2a_2
*I *253:Y O *D sky130_fd_sc_hd__nand2b_2
*CAP
1 *254:A2_N 0.000341517
2 *253:Y 0.000341517
3 *254:A2_N *254:A1_N 1.50359e-05
4 *254:A2_N *255:B2 5.03331e-05
5 *255:A2 *254:A2_N 1.92905e-05
6 *255:B1 *254:A2_N 2.87497e-05
7 *255:C1 *254:A2_N 0.000121352
8 *12:10 *254:A2_N 5.03331e-05
*RES
1 *253:Y *254:A2_N 33.2964 
*END

*D_NET *29 0.000390508
*CONN
*I *255:B2 I *D sky130_fd_sc_hd__o221a_2
*I *254:X O *D sky130_fd_sc_hd__o2bb2a_2
*CAP
1 *255:B2 9.11519e-05
2 *254:X 9.11519e-05
3 *255:B2 *254:A1_N 3.09893e-05
4 *254:A2_N *255:B2 5.03331e-05
5 *12:10 *255:B2 0
6 *25:38 *255:B2 0.000126882
*RES
1 *254:X *255:B2 29.7786 
*END

*D_NET *30 0.00199677
*CONN
*I *258:C1 I *D sky130_fd_sc_hd__a2111o_2
*I *256:X O *D sky130_fd_sc_hd__and3_2
*CAP
1 *258:C1 0.000305558
2 *256:X 0.000305558
3 *258:C1 *257:A_N 9.04983e-05
4 *258:C1 *257:C 5.0137e-05
5 *258:C1 *258:D1 0.000112496
6 *258:C1 *263:A1 7.43578e-06
7 *258:C1 *55:6 0.000442762
8 *258:C1 *55:26 9.7991e-05
9 *258:C1 *55:92 0.000136682
10 *258:C1 *55:101 0.000394322
11 *284:A *258:C1 5.33334e-05
*RES
1 *256:X *258:C1 28.5821 
*END

*D_NET *31 0.000469075
*CONN
*I *258:D1 I *D sky130_fd_sc_hd__a2111o_2
*I *257:X O *D sky130_fd_sc_hd__and3b_2
*CAP
1 *258:D1 6.76101e-05
2 *257:X 6.76101e-05
3 *258:D1 *257:C 0.000221359
4 *258:C1 *258:D1 0.000112496
*RES
1 *257:X *258:D1 20.7786 
*END

*D_NET *32 0.00469563
*CONN
*I *259:B1 I *D sky130_fd_sc_hd__o211a_2
*I *258:X O *D sky130_fd_sc_hd__a2111o_2
*CAP
1 *259:B1 0.00219068
2 *258:X 0.00219068
3 *259:B1 *250:A1 2.06112e-05
4 *251:C1 *259:B1 2.06112e-05
5 *259:A2 *259:B1 9.23805e-05
6 *259:C1 *259:B1 2.72545e-05
7 *266:D *259:B1 4.33002e-05
8 *12:10 *259:B1 0.000110113
*RES
1 *258:X *259:B1 46.0789 
*END

*D_NET *33 0.00144531
*CONN
*I *262:C1 I *D sky130_fd_sc_hd__a211o_2
*I *260:X O *D sky130_fd_sc_hd__and3_2
*CAP
1 *262:C1 0.00033094
2 *260:X 0.00033094
3 *250:B1 *262:C1 0.000493639
4 *251:B2 *262:C1 9.80904e-05
5 *262:B1 *262:C1 0.000191704
*RES
1 *260:X *262:C1 35.8679 
*END

*D_NET *34 0.0014704
*CONN
*I *263:B1 I *D sky130_fd_sc_hd__o221a_2
*I *261:X O *D sky130_fd_sc_hd__and3b_2
*CAP
1 *263:B1 0.00034343
2 *261:X 0.00034343
3 *263:B1 *250:A1 0.000225037
4 *263:B1 *254:A1_N 3.04311e-05
5 *251:C1 *263:B1 1.02504e-05
6 *25:16 *263:B1 0.000417578
7 *25:38 *263:B1 0.000100248
*RES
1 *261:X *263:B1 35.8812 
*END

*D_NET *35 0.00298388
*CONN
*I *263:B2 I *D sky130_fd_sc_hd__o221a_2
*I *262:X O *D sky130_fd_sc_hd__a211o_2
*CAP
1 *263:B2 0.000742717
2 *262:X 0.000742717
3 *263:B2 *250:A1 0.000416163
4 *263:B2 *262:A2 9.60875e-05
5 *263:B2 *264:D 0.00010326
6 *263:B2 *45:8 0.000138606
7 *251:A2 *263:B2 0.00037882
8 *251:B2 *263:B2 3.19218e-05
9 *262:A1 *263:B2 2.84026e-05
10 *262:B1 *263:B2 0.000305191
*RES
1 *262:X *263:B2 41.8679 
*END

*D_NET *36 0.00341635
*CONN
*I *270:A I *D sky130_fd_sc_hd__clkbuf_16
*I *269:A I *D sky130_fd_sc_hd__clkbuf_16
*I *268:X O *D sky130_fd_sc_hd__clkbuf_16
*CAP
1 *270:A 7.51842e-05
2 *269:A 0
3 *268:X 1.77397e-05
4 *36:31 0.000394409
5 *36:19 0.000474938
6 *36:13 0.00110367
7 *36:6 0.000327242
8 *270:A *287:A 7.48091e-05
9 *36:19 *250:A1 0
10 *36:19 *254:B2 2.39885e-05
11 *36:19 *263:A1 9.01334e-05
12 *36:19 *267:CLK 0.000182413
13 *36:31 *254:B2 2.98475e-05
14 *36:31 *265:CLK 0.000126209
15 *36:31 *265:D 0
16 *36:31 *38:10 6.39901e-05
17 *36:31 *47:10 0
18 Q[1] *36:19 5.38886e-05
19 *251:A2 *36:19 9.36243e-05
20 *258:B1 *36:19 1.91418e-05
21 *12:10 *36:19 2.15121e-05
22 *12:10 *36:31 0.000243618
*RES
1 *268:X *36:6 9.63036 
2 *36:6 *36:13 8.9375 
3 *36:13 *36:19 11.4107 
4 *36:19 *269:A 13.8 
5 *36:13 *36:31 8.92857 
6 *36:31 *270:A 15.1571 
*END

*D_NET *37 0.00180478
*CONN
*I *267:CLK I *D sky130_fd_sc_hd__dfxtp_2
*I *264:CLK I *D sky130_fd_sc_hd__dfxtp_2
*I *269:X O *D sky130_fd_sc_hd__clkbuf_16
*CAP
1 *267:CLK 0.000149191
2 *264:CLK 5.88582e-05
3 *269:X 0.000280214
4 *37:10 0.000488263
5 *264:CLK *289:A 7.32272e-05
6 *267:CLK *254:B2 2.2628e-05
7 *37:10 *289:A 0.000241657
8 Q[1] *267:CLK 0.000161858
9 *258:B1 *267:CLK 0.000146474
10 *36:19 *267:CLK 0.000182413
*RES
1 *269:X *37:10 14.9071 
2 *37:10 *264:CLK 10.6571 
3 *37:10 *267:CLK 22.9786 
*END

*D_NET *38 0.00132554
*CONN
*I *266:CLK I *D sky130_fd_sc_hd__dfxtp_2
*I *265:CLK I *D sky130_fd_sc_hd__dfxtp_2
*I *270:X O *D sky130_fd_sc_hd__clkbuf_16
*CAP
1 *266:CLK 0
2 *265:CLK 0.000106304
3 *270:X 0.000386536
4 *38:10 0.00049284
5 *265:CLK *255:A1 5.71472e-05
6 *265:CLK *47:10 5.57914e-05
7 *38:10 *287:A 3.67257e-05
8 *36:31 *265:CLK 0.000126209
9 *36:31 *38:10 6.39901e-05
*RES
1 *270:X *38:10 19.2643 
2 *38:10 *265:CLK 17.1929 
3 *38:10 *266:CLK 13.8 
*END

*D_NET *39 0.00184164
*CONN
*I *246:C I *D sky130_fd_sc_hd__and3_2
*I *278:X O *D sky130_fd_sc_hd__clkdlybuf4s25_1
*CAP
1 *246:C 0.000526007
2 *278:X 0.000526007
3 *246:C *260:A 1.54142e-05
4 *246:C *260:C 5.49544e-05
5 *246:C *54:19 0.000179656
6 *246:C *54:34 0.000496812
7 *246:C *54:87 4.27935e-05
*RES
1 *278:X *246:C 36.5286 
*END

*D_NET *40 0.00515422
*CONN
*I *275:A I *D sky130_fd_sc_hd__dlygate4sd3_1
*I *286:A I *D sky130_fd_sc_hd__clkdlybuf4s25_1
*I *250:A1 I *D sky130_fd_sc_hd__a211o_2
*I *265:Q O *D sky130_fd_sc_hd__dfxtp_2
*CAP
1 *275:A 0.000255179
2 *286:A 0
3 *250:A1 0.000584884
4 *265:Q 0
5 *40:14 0.00149452
6 *40:6 0.00116482
7 *250:A1 *264:D 1.81709e-05
8 *40:14 *289:A 0
9 Q[0] *40:14 0.0001615
10 *250:C1 *250:A1 2.47631e-06
11 *251:A2 *250:A1 1.31516e-05
12 *251:B1 *250:A1 0.000156677
13 *251:C1 *250:A1 0.000458043
14 *259:B1 *250:A1 2.06112e-05
15 *262:A1 *250:A1 6.02811e-05
16 *263:B1 *250:A1 0.000225037
17 *263:B2 *250:A1 0.000416163
18 *274:A *250:A1 0
19 *276:A *40:14 0
20 *20:25 *250:A1 9.90431e-05
21 *24:12 *250:A1 2.36643e-05
22 *36:19 *250:A1 0
*RES
1 *265:Q *40:6 13.8 
2 *40:6 *40:14 20.4821 
3 *40:14 *250:A1 33.55 
4 *40:14 *286:A 9.3 
5 *40:6 *275:A 18.3179 
*END

*D_NET *41 0.00252426
*CONN
*I *287:A I *D sky130_fd_sc_hd__clkdlybuf4s25_1
*I *277:A I *D sky130_fd_sc_hd__dlygate4sd3_1
*I *253:B I *D sky130_fd_sc_hd__nand2b_2
*I *261:C I *D sky130_fd_sc_hd__and3b_2
*I *266:Q O *D sky130_fd_sc_hd__dfxtp_2
*CAP
1 *287:A 0.000325265
2 *277:A 0
3 *253:B 0
4 *261:C 0.000145457
5 *266:Q 0
6 *41:32 0.000687026
7 *41:8 0.00030585
8 *41:6 0.000522154
9 *261:C *254:A1_N 5.68457e-05
10 *41:8 *245:A 3.14963e-05
11 *41:8 *252:C 0
12 *41:32 *245:A 6.92093e-05
13 *270:A *287:A 7.48091e-05
14 *12:10 *287:A 0
15 *21:10 *41:8 0.000121842
16 *21:18 *261:C 0.000124869
17 *21:18 *41:8 2.27129e-05
18 *38:10 *287:A 3.67257e-05
*RES
1 *266:Q *41:6 13.8 
2 *41:6 *41:8 3.46429 
3 *41:8 *261:C 16.4295 
4 *41:8 *253:B 13.8 
5 *41:6 *41:32 10.2679 
6 *41:32 *277:A 9.3 
7 *41:32 *287:A 24.2643 
*END

*D_NET *42 0.00157075
*CONN
*I *271:A I *D sky130_fd_sc_hd__dlygate4sd3_1
*I *288:A I *D sky130_fd_sc_hd__clkdlybuf4s25_1
*I *267:Q O *D sky130_fd_sc_hd__dfxtp_2
*CAP
1 *271:A 6.17285e-05
2 *288:A 0.000248436
3 *267:Q 0.000280805
4 *42:8 0.000590969
5 *288:A *248:B 0
6 *42:8 *248:B 0
7 *42:8 *289:A 0
8 Q[3] *288:A 0.000121606
9 Q[3] *42:8 0.000267204
*RES
1 *267:Q *42:8 20.3 
2 *42:8 *288:A 18.8357 
3 *42:8 *271:A 14.7464 
*END

*D_NET *43 0.002341
*CONN
*I *258:A1 I *D sky130_fd_sc_hd__a2111o_2
*I *263:A1 I *D sky130_fd_sc_hd__o221a_2
*I *271:X O *D sky130_fd_sc_hd__dlygate4sd3_1
*CAP
1 *258:A1 0
2 *263:A1 0.000121595
3 *271:X 0.000209291
4 *43:12 0.000330886
5 *263:A1 *257:C 9.71197e-05
6 *263:A1 *55:101 1.21289e-05
7 *43:12 *244:A 6.87621e-05
8 *43:12 *248:B 0.000267807
9 *43:12 *257:C 0.000268409
10 *251:A2 *263:A1 0.000175519
11 *254:B1 *43:12 3.06466e-05
12 *258:A2 *43:12 0.000225616
13 *258:B1 *263:A1 2.89016e-05
14 *258:B1 *43:12 3.8274e-05
15 *258:C1 *263:A1 7.43578e-06
16 *20:6 *43:12 5.33005e-05
17 *20:25 *43:12 0.000315172
18 *36:19 *263:A1 9.01334e-05
*RES
1 *271:X *43:12 26.0857 
2 *43:12 *263:A1 22.0321 
3 *43:12 *258:A1 9.3 
*END

*D_NET *44 0.000310856
*CONN
*I *267:D I *D sky130_fd_sc_hd__dfxtp_2
*I *272:X O *D sky130_fd_sc_hd__dlygate4sd3_1
*CAP
1 *267:D 4.55266e-05
2 *272:X 4.55266e-05
3 *267:D *254:B2 0.000102545
4 *267:D *257:C 0.000100823
5 *272:A *267:D 1.64343e-05
*RES
1 *272:X *267:D 29.1045 
*END

*D_NET *45 0.00326573
*CONN
*I *254:B2 I *D sky130_fd_sc_hd__o2bb2a_2
*I *251:A1 I *D sky130_fd_sc_hd__o221a_2
*I *273:X O *D sky130_fd_sc_hd__dlygate4sd3_1
*CAP
1 *254:B2 0.000700553
2 *251:A1 0
3 *273:X 0.000174176
4 *45:8 0.000874729
5 *254:B2 *257:C 0.000298316
6 Q[1] *254:B2 0.000304537
7 *251:B1 *45:8 1.28809e-05
8 *251:B2 *45:8 5.61699e-05
9 *254:B1 *254:B2 6.03578e-05
10 *258:B1 *254:B2 0.000338351
11 *263:B2 *45:8 0.000138606
12 *267:CLK *254:B2 2.2628e-05
13 *267:D *254:B2 0.000102545
14 *20:25 *254:B2 0.000128043
15 *36:19 *254:B2 2.39885e-05
16 *36:31 *254:B2 2.98475e-05
*RES
1 *273:X *45:8 12.7286 
2 *45:8 *251:A1 9.3 
3 *45:8 *254:B2 35.6214 
*END

*D_NET *46 0.000742231
*CONN
*I *264:D I *D sky130_fd_sc_hd__dfxtp_2
*I *274:X O *D sky130_fd_sc_hd__dlygate4sd3_1
*CAP
1 *264:D 0.000158971
2 *274:X 0.000158971
3 *264:D *289:A 3.32132e-06
4 *250:A1 *264:D 1.81709e-05
5 *251:A2 *264:D 0.000150625
6 *251:B1 *264:D 0.000148911
7 *258:B1 *264:D 0
8 *263:B2 *264:D 0.00010326
9 *274:A *264:D 0
*RES
1 *274:X *264:D 31.533 
*END

*D_NET *47 0.00444127
*CONN
*I *255:A1 I *D sky130_fd_sc_hd__o221a_2
*I *257:C I *D sky130_fd_sc_hd__and3b_2
*I *275:X O *D sky130_fd_sc_hd__dlygate4sd3_1
*CAP
1 *255:A1 0.000196769
2 *257:C 0.000717679
3 *275:X 0.000160839
4 *47:10 0.00107529
5 *255:A1 *265:D 1.64343e-05
6 *257:C *265:D 0.000100259
7 *254:B1 *257:C 0.00072019
8 *254:B2 *257:C 0.000298316
9 *258:C1 *257:C 5.0137e-05
10 *258:D1 *257:C 0.000221359
11 *263:A1 *257:C 9.71197e-05
12 *265:CLK *255:A1 5.71472e-05
13 *265:CLK *47:10 5.57914e-05
14 *267:D *257:C 0.000100823
15 *276:A *255:A1 0.000304705
16 *276:A *257:C 0
17 *36:31 *47:10 0
18 *43:12 *257:C 0.000268409
*RES
1 *275:X *47:10 16.5857 
2 *47:10 *257:C 32.0589 
3 *47:10 *255:A1 19.0321 
*END

*D_NET *48 0.000271533
*CONN
*I *265:D I *D sky130_fd_sc_hd__dfxtp_2
*I *276:X O *D sky130_fd_sc_hd__dlygate4sd3_1
*CAP
1 *265:D 6.92025e-05
2 *276:X 6.92025e-05
3 *255:A1 *265:D 1.64343e-05
4 *257:C *265:D 0.000100259
5 *276:A *265:D 1.64343e-05
6 *36:31 *265:D 0
*RES
1 *276:X *265:D 29.1045 
*END

*D_NET *49 0.000426823
*CONN
*I *259:A1 I *D sky130_fd_sc_hd__o211a_2
*I *277:X O *D sky130_fd_sc_hd__dlygate4sd3_1
*CAP
1 *259:A1 0.000179805
2 *277:X 0.000179805
3 *266:D *259:A1 6.72125e-05
*RES
1 *277:X *259:A1 30.7518 
*END

*D_NET *50 0.00107378
*CONN
*I *252:C I *D sky130_fd_sc_hd__and3_2
*I *279:X O *D sky130_fd_sc_hd__clkdlybuf4s25_1
*CAP
1 *252:C 0.000530961
2 *279:X 0.000530961
3 *252:C *245:A 0
4 *252:C *252:A 5.80706e-06
5 *252:C *252:B 0
6 *252:C *55:70 0
7 *279:A *252:C 6.05161e-06
8 *21:10 *252:C 0
9 *41:8 *252:C 0
*RES
1 *279:X *252:C 35.2786 
*END

*D_NET *51 0.00170448
*CONN
*I *256:C I *D sky130_fd_sc_hd__and3_2
*I *280:X O *D sky130_fd_sc_hd__clkdlybuf4s25_1
*CAP
1 *256:C 0.000554725
2 *280:X 0.000554725
3 *256:C *247:B 0.000270943
4 *256:C *257:A_N 0
5 *256:C *260:C 0
6 *256:C *53:12 0.00018372
7 *256:C *54:19 0.000137544
8 *256:C *54:34 2.8266e-06
9 *284:A *256:C 0
*RES
1 *280:X *256:C 37.3321 
*END

*D_NET *52 0.00257102
*CONN
*I *260:C I *D sky130_fd_sc_hd__and3_2
*I *281:X O *D sky130_fd_sc_hd__clkdlybuf4s25_1
*CAP
1 *260:C 0.000578736
2 *281:X 0.000578736
3 *260:C *257:A_N 6.19181e-05
4 *260:C *260:A 0.000442944
5 *260:C *273:A 0
6 *260:C *54:49 4.46186e-06
7 *260:C *55:30 0
8 *246:C *260:C 5.49544e-05
9 *250:B1 *260:C 0.000182592
10 *256:C *260:C 0
11 *262:A1 *260:C 4.48583e-05
12 *278:A *260:C 0
13 *280:A *260:C 0
14 *284:A *260:C 0.000621816
*RES
1 *281:X *260:C 41.6714 
*END

*D_NET *53 0.00133221
*CONN
*I *262:A2 I *D sky130_fd_sc_hd__a211o_2
*I *247:C I *D sky130_fd_sc_hd__and3b_2
*I *282:X O *D sky130_fd_sc_hd__clkdlybuf4s25_1
*CAP
1 *262:A2 0.000158063
2 *247:C 0
3 *282:X 0.000153082
4 *53:12 0.000311145
5 *53:12 *54:10 0.000154762
6 *53:12 *54:19 2.31791e-05
7 *251:B2 *262:A2 8.37104e-05
8 *256:C *53:12 0.00018372
9 *262:B1 *262:A2 1.3701e-05
10 *263:B2 *262:A2 9.60875e-05
11 *280:A *53:12 0.000154762
*RES
1 *282:X *53:12 22.7687 
2 *53:12 *247:C 9.3 
3 *53:12 *262:A2 12.6884 
*END

*D_NET *54 0.0111481
*CONN
*I *248:A I *D sky130_fd_sc_hd__nor2_2
*I *260:A I *D sky130_fd_sc_hd__and3_2
*I *246:A I *D sky130_fd_sc_hd__and3_2
*I *252:A I *D sky130_fd_sc_hd__and3_2
*I *254:A1_N I *D sky130_fd_sc_hd__o2bb2a_2
*I *261:A_N I *D sky130_fd_sc_hd__and3b_2
*I *249:A I *D sky130_fd_sc_hd__or2_2
*I *257:A_N I *D sky130_fd_sc_hd__and3b_2
*I *256:A I *D sky130_fd_sc_hd__and3_2
*I *247:A_N I *D sky130_fd_sc_hd__and3b_2
*I *283:X O *D sky130_fd_sc_hd__clkdlybuf4s25_1
*CAP
1 *248:A 0.00108765
2 *260:A 0.000182747
3 *246:A 0
4 *252:A 0.000109253
5 *254:A1_N 0.000204698
6 *261:A_N 0
7 *249:A 0.000298904
8 *257:A_N 0.000220664
9 *256:A 4.00275e-05
10 *247:A_N 0
11 *283:X 0.000309586
12 *54:87 0.000201321
13 *54:64 0.000437884
14 *54:60 0.00050065
15 *54:49 0.000752304
16 *54:36 0.000515853
17 *54:34 0.000212243
18 *54:19 0.00042129
19 *54:10 0.000357694
20 *54:6 0.00156734
21 *249:A *249:B 9.58181e-05
22 *252:A *55:70 0
23 *254:A1_N *261:B 5.86236e-05
24 *260:A *246:B 8.20547e-05
25 *260:A *260:B 9.77264e-06
26 *54:10 *247:B 0
27 *54:19 *247:B 0
28 *54:49 *55:30 0
29 *54:49 *55:48 0
30 *54:64 *261:B 3.69047e-06
31 *246:C *260:A 1.54142e-05
32 *246:C *54:19 0.000179656
33 *246:C *54:34 0.000496812
34 *246:C *54:87 4.27935e-05
35 *250:C1 *248:A 9.77118e-05
36 *252:C *252:A 5.80706e-06
37 *254:A2_N *254:A1_N 1.50359e-05
38 *255:B2 *254:A1_N 3.09893e-05
39 *256:C *257:A_N 0
40 *256:C *54:19 0.000137544
41 *256:C *54:34 2.8266e-06
42 *258:C1 *257:A_N 9.04983e-05
43 *260:C *257:A_N 6.19181e-05
44 *260:C *260:A 0.000442944
45 *260:C *54:49 4.46186e-06
46 *261:C *254:A1_N 5.68457e-05
47 *263:B1 *254:A1_N 3.04311e-05
48 *280:A *54:10 1.18064e-05
49 *282:A *248:A 0.000199413
50 *283:A *248:A 0.000359997
51 *283:A *54:6 9.90367e-05
52 *284:A *257:A_N 5.52238e-05
53 *284:A *54:10 0
54 *21:18 *260:A 0.000240368
55 *24:8 *248:A 3.48705e-05
56 *24:12 *248:A 0.000587664
57 *53:12 *54:10 0.000154762
58 *53:12 *54:19 2.31791e-05
*RES
1 *283:X *54:6 13.1214 
2 *54:6 *54:10 7.96429 
3 *54:10 *247:A_N 13.8 
4 *54:10 *54:19 5.28571 
5 *54:19 *256:A 14.3357 
6 *54:19 *54:34 9.96429 
7 *54:34 *54:36 4.5 
8 *54:36 *257:A_N 18.4429 
9 *54:36 *54:49 5.28571 
10 *54:49 *249:A 18.8536 
11 *54:49 *54:60 2.85714 
12 *54:60 *54:64 7.91071 
13 *54:64 *261:A_N 9.3 
14 *54:64 *254:A1_N 13.6661 
15 *54:60 *252:A 15.7464 
16 *54:34 *54:87 0.535714 
17 *54:87 *246:A 9.3 
18 *54:87 *260:A 15.6214 
19 *54:6 *248:A 24.9429 
*END

*D_NET *55 0.0102859
*CONN
*I *244:A I *D sky130_fd_sc_hd__inv_2
*I *248:B I *D sky130_fd_sc_hd__nor2_2
*I *257:B I *D sky130_fd_sc_hd__and3b_2
*I *252:B I *D sky130_fd_sc_hd__and3_2
*I *253:A_N I *D sky130_fd_sc_hd__nand2b_2
*I *261:B I *D sky130_fd_sc_hd__and3b_2
*I *249:B I *D sky130_fd_sc_hd__or2_2
*I *260:B I *D sky130_fd_sc_hd__and3_2
*I *246:B I *D sky130_fd_sc_hd__and3_2
*I *247:B I *D sky130_fd_sc_hd__and3b_2
*I *256:B I *D sky130_fd_sc_hd__and3_2
*I *284:X O *D sky130_fd_sc_hd__clkdlybuf4s25_1
*CAP
1 *244:A 0.000171956
2 *248:B 0.000335571
3 *257:B 0
4 *252:B 0.000234021
5 *253:A_N 2.80855e-05
6 *261:B 0.000140648
7 *249:B 5.45767e-05
8 *260:B 0.000131827
9 *246:B 0.000163043
10 *247:B 0.000221979
11 *256:B 5.54804e-05
12 *284:X 0
13 *55:101 0.00113054
14 *55:92 0.000720488
15 *55:70 0.000386388
16 *55:59 0.000359915
17 *55:48 0.000295165
18 *55:32 0.000294869
19 *55:30 0.00033434
20 *55:26 0.000347825
21 *55:6 0.000610547
22 *55:4 0.000394704
23 *244:A *289:A 2.37898e-05
24 *248:B *289:A 2.34204e-05
25 *249:A *249:B 9.58181e-05
26 *250:B1 *55:30 0.000194941
27 *252:A *55:70 0
28 *252:C *252:B 0
29 *252:C *55:70 0
30 *254:A1_N *261:B 5.86236e-05
31 *254:B1 *244:A 1.03483e-05
32 *255:B1 *252:B 0.000185118
33 *255:B1 *253:A_N 2.84026e-05
34 *256:C *247:B 0.000270943
35 *258:A2 *55:101 8.86413e-05
36 *258:B1 *55:101 0.00018077
37 *258:C1 *55:6 0.000442762
38 *258:C1 *55:26 9.7991e-05
39 *258:C1 *55:92 0.000136682
40 *258:C1 *55:101 0.000394322
41 *260:A *246:B 8.20547e-05
42 *260:A *260:B 9.77264e-06
43 *260:C *55:30 0
44 *263:A1 *55:101 1.21289e-05
45 *272:A *244:A 1.38167e-05
46 *284:A *247:B 0
47 *288:A *248:B 0
48 *20:6 *244:A 9.76689e-05
49 *20:6 *55:101 3.97677e-05
50 *20:25 *248:B 0.000118105
51 *21:10 *252:B 4.48383e-05
52 *21:18 *252:B 3.27526e-05
53 *21:18 *260:B 7.57394e-05
54 *21:18 *55:30 5.71124e-05
55 *21:18 *55:48 0.000290029
56 *21:18 *55:59 0.000170575
57 *21:18 *55:70 0.0002434
58 *24:8 *248:B 1.33343e-05
59 *42:8 *248:B 0
60 *43:12 *244:A 6.87621e-05
61 *43:12 *248:B 0.000267807
62 *54:10 *247:B 0
63 *54:19 *247:B 0
64 *54:49 *55:30 0
65 *54:49 *55:48 0
66 *54:64 *261:B 3.69047e-06
*RES
1 *284:X *55:4 9.3 
2 *55:4 *55:6 4.64286 
3 *55:6 *256:B 9.83571 
4 *55:6 *247:B 23.2821 
5 *55:4 *55:26 0.946429 
6 *55:26 *55:30 8.57143 
7 *55:30 *55:32 4.5 
8 *55:32 *246:B 11.4786 
9 *55:32 *260:B 11.0679 
10 *55:30 *55:48 3.76786 
11 *55:48 *249:B 14.7464 
12 *55:48 *55:59 2.25 
13 *55:59 *261:B 15.5679 
14 *55:59 *55:70 3.16071 
15 *55:70 *253:A_N 14.3357 
16 *55:70 *252:B 17.425 
17 *55:26 *55:92 1.35714 
18 *55:92 *257:B 9.3 
19 *55:92 *55:101 12.8393 
20 *55:101 *248:B 21.1393 
21 *55:101 *244:A 17.3357 
*END

*D_NET *56 0.000751949
*CONN
*I *245:A I *D sky130_fd_sc_hd__inv_2
*I *285:X O *D sky130_fd_sc_hd__clkdlybuf4s25_1
*CAP
1 *245:A 0.000325622
2 *285:X 0.000325622
3 *252:C *245:A 0
4 *279:A *245:A 0
5 *41:8 *245:A 3.14963e-05
6 *41:32 *245:A 6.92093e-05
*RES
1 *285:X *245:A 33.0286 
*END

*D_NET *57 0.00376018
*CONN
*I *289:A I *D sky130_fd_sc_hd__clkdlybuf4s25_1
*I *273:A I *D sky130_fd_sc_hd__dlygate4sd3_1
*I *264:Q O *D sky130_fd_sc_hd__dfxtp_2
*CAP
1 *289:A 0.00139521
2 *273:A 0.00013267
3 *264:Q 0.00152788
4 *244:A *289:A 2.37898e-05
5 *248:B *289:A 2.34204e-05
6 *254:B1 *289:A 0
7 *260:C *273:A 0
8 *262:A1 *273:A 1.00399e-05
9 *264:CLK *289:A 7.32272e-05
10 *264:D *289:A 3.32132e-06
11 *272:A *289:A 0.000122933
12 *278:A *273:A 0.000171776
13 *278:A *289:A 3.42426e-05
14 *37:10 *289:A 0.000241657
15 *40:14 *289:A 0
16 *42:8 *289:A 0
*RES
1 *264:Q *273:A 30.0821 
2 *264:Q *289:A 46.0286 
*END
