*SPEF "ieee 1481-1999"
*DESIGN "u_s_r"
*DATE "20:48:27 Wednesday June 03, 2026"
*VENDOR "The OpenROAD Project"
*PROGRAM "OpenROAD"
*VERSION "dcf36133a369abc8f3c5e5738cd4d82e4903c0e0"
*DESIGN_FLOW "NAME_SCOPE LOCAL" "PIN_CAP NONE"
*DIVIDER /
*DELIMITER :
*BUS_DELIMITER []
*T_UNIT 1 NS
*C_UNIT 1 PF
*R_UNIT 1 OHM
*L_UNIT 1 HENRY

*NAME_MAP
*1 D[0]
*2 D[1]
*3 D[2]
*4 D[3]
*5 Q[0]
*6 Q[1]
*7 Q[2]
*8 Q[3]
*9 S_in
*12 clk
*13 mode[0]
*14 mode[1]
*15 rst
*16 _00_
*17 _01_
*18 _02_
*19 _03_
*20 _04_
*21 _05_
*22 _06_
*23 _07_
*24 _08_
*25 _09_
*26 _10_
*27 _11_
*28 _12_
*29 _13_
*30 _14_
*31 _15_
*32 _16_
*33 _17_
*34 _18_
*35 _19_
*36 clknet_0_clk
*37 clknet_1_0__leaf_clk
*38 clknet_1_1__leaf_clk
*39 net1
*40 net10
*41 net11
*42 net12
*43 net13
*44 net14
*45 net15
*46 net16
*47 net17
*48 net18
*49 net19
*50 net2
*51 net3
*52 net4
*53 net5
*54 net6
*55 net7
*56 net8
*57 net9
*58 FILLER_0_100
*59 FILLER_0_103
*60 FILLER_0_106
*61 FILLER_0_109
*62 FILLER_0_113
*63 FILLER_0_116
*64 FILLER_0_119
*65 FILLER_0_12
*66 FILLER_0_122
*67 FILLER_0_125
*68 FILLER_0_15
*69 FILLER_0_18
*70 FILLER_0_21
*71 FILLER_0_24
*72 FILLER_0_27
*73 FILLER_0_29
*74 FILLER_0_3
*75 FILLER_0_32
*76 FILLER_0_35
*77 FILLER_0_38
*78 FILLER_0_41
*79 FILLER_0_44
*80 FILLER_0_54
*81 FILLER_0_6
*82 FILLER_0_65
*83 FILLER_0_68
*84 FILLER_0_71
*85 FILLER_0_80
*86 FILLER_0_83
*87 FILLER_0_85
*88 FILLER_0_88
*89 FILLER_0_9
*90 FILLER_0_91
*91 FILLER_0_94
*92 FILLER_0_97
*93 FILLER_10_101
*94 FILLER_10_104
*95 FILLER_10_107
*96 FILLER_10_110
*97 FILLER_10_113
*98 FILLER_10_116
*99 FILLER_10_119
*100 FILLER_10_12
*101 FILLER_10_122
*102 FILLER_10_125
*103 FILLER_10_15
*104 FILLER_10_18
*105 FILLER_10_21
*106 FILLER_10_24
*107 FILLER_10_27
*108 FILLER_10_29
*109 FILLER_10_3
*110 FILLER_10_32
*111 FILLER_10_35
*112 FILLER_10_38
*113 FILLER_10_41
*114 FILLER_10_44
*115 FILLER_10_47
*116 FILLER_10_50
*117 FILLER_10_53
*118 FILLER_10_56
*119 FILLER_10_59
*120 FILLER_10_6
*121 FILLER_10_62
*122 FILLER_10_65
*123 FILLER_10_68
*124 FILLER_10_71
*125 FILLER_10_74
*126 FILLER_10_77
*127 FILLER_10_80
*128 FILLER_10_83
*129 FILLER_10_9
*130 FILLER_11_106
*131 FILLER_11_109
*132 FILLER_11_113
*133 FILLER_11_116
*134 FILLER_11_119
*135 FILLER_11_12
*136 FILLER_11_122
*137 FILLER_11_125
*138 FILLER_11_15
*139 FILLER_11_18
*140 FILLER_11_21
*141 FILLER_11_24
*142 FILLER_11_27
*143 FILLER_11_3
*144 FILLER_11_30
*145 FILLER_11_33
*146 FILLER_11_51
*147 FILLER_11_54
*148 FILLER_11_57
*149 FILLER_11_6
*150 FILLER_11_60
*151 FILLER_11_63
*152 FILLER_11_73
*153 FILLER_11_76
*154 FILLER_11_79
*155 FILLER_11_88
*156 FILLER_11_9
*157 FILLER_12_106
*158 FILLER_12_109
*159 FILLER_12_112
*160 FILLER_12_115
*161 FILLER_12_118
*162 FILLER_12_121
*163 FILLER_12_124
*164 FILLER_12_17
*165 FILLER_12_20
*166 FILLER_12_23
*167 FILLER_12_26
*168 FILLER_12_29
*169 FILLER_12_32
*170 FILLER_12_35
*171 FILLER_12_46
*172 FILLER_12_49
*173 FILLER_12_52
*174 FILLER_12_78
*175 FILLER_12_81
*176 FILLER_12_85
*177 FILLER_12_88
*178 FILLER_13_107
*179 FILLER_13_11
*180 FILLER_13_110
*181 FILLER_13_113
*182 FILLER_13_116
*183 FILLER_13_14
*184 FILLER_13_17
*185 FILLER_13_20
*186 FILLER_13_23
*187 FILLER_13_26
*188 FILLER_13_29
*189 FILLER_13_32
*190 FILLER_13_35
*191 FILLER_13_38
*192 FILLER_13_41
*193 FILLER_13_44
*194 FILLER_13_47
*195 FILLER_13_50
*196 FILLER_13_53
*197 FILLER_13_57
*198 FILLER_13_60
*199 FILLER_13_69
*200 FILLER_13_72
*201 FILLER_13_75
*202 FILLER_13_78
*203 FILLER_13_81
*204 FILLER_13_84
*205 FILLER_14_102
*206 FILLER_14_105
*207 FILLER_14_108
*208 FILLER_14_11
*209 FILLER_14_111
*210 FILLER_14_114
*211 FILLER_14_117
*212 FILLER_14_120
*213 FILLER_14_123
*214 FILLER_14_126
*215 FILLER_14_14
*216 FILLER_14_17
*217 FILLER_14_20
*218 FILLER_14_23
*219 FILLER_14_26
*220 FILLER_14_29
*221 FILLER_14_32
*222 FILLER_14_35
*223 FILLER_14_38
*224 FILLER_14_41
*225 FILLER_14_44
*226 FILLER_14_47
*227 FILLER_14_50
*228 FILLER_14_53
*229 FILLER_14_56
*230 FILLER_14_59
*231 FILLER_14_62
*232 FILLER_14_65
*233 FILLER_14_68
*234 FILLER_14_71
*235 FILLER_14_74
*236 FILLER_14_77
*237 FILLER_14_80
*238 FILLER_14_83
*239 FILLER_14_93
*240 FILLER_14_96
*241 FILLER_14_99
*242 FILLER_15_102
*243 FILLER_15_105
*244 FILLER_15_108
*245 FILLER_15_11
*246 FILLER_15_111
*247 FILLER_15_113
*248 FILLER_15_116
*249 FILLER_15_119
*250 FILLER_15_122
*251 FILLER_15_125
*252 FILLER_15_14
*253 FILLER_15_17
*254 FILLER_15_20
*255 FILLER_15_23
*256 FILLER_15_26
*257 FILLER_15_29
*258 FILLER_15_32
*259 FILLER_15_35
*260 FILLER_15_38
*261 FILLER_15_41
*262 FILLER_15_44
*263 FILLER_15_47
*264 FILLER_15_50
*265 FILLER_15_53
*266 FILLER_15_57
*267 FILLER_15_60
*268 FILLER_15_63
*269 FILLER_15_66
*270 FILLER_15_69
*271 FILLER_15_72
*272 FILLER_15_75
*273 FILLER_15_78
*274 FILLER_15_81
*275 FILLER_15_84
*276 FILLER_15_87
*277 FILLER_15_90
*278 FILLER_15_93
*279 FILLER_15_96
*280 FILLER_15_99
*281 FILLER_16_100
*282 FILLER_16_103
*283 FILLER_16_106
*284 FILLER_16_109
*285 FILLER_16_112
*286 FILLER_16_115
*287 FILLER_16_118
*288 FILLER_16_12
*289 FILLER_16_121
*290 FILLER_16_124
*291 FILLER_16_15
*292 FILLER_16_18
*293 FILLER_16_21
*294 FILLER_16_24
*295 FILLER_16_27
*296 FILLER_16_29
*297 FILLER_16_3
*298 FILLER_16_32
*299 FILLER_16_35
*300 FILLER_16_38
*301 FILLER_16_41
*302 FILLER_16_44
*303 FILLER_16_47
*304 FILLER_16_50
*305 FILLER_16_53
*306 FILLER_16_56
*307 FILLER_16_59
*308 FILLER_16_6
*309 FILLER_16_62
*310 FILLER_16_65
*311 FILLER_16_68
*312 FILLER_16_71
*313 FILLER_16_74
*314 FILLER_16_77
*315 FILLER_16_80
*316 FILLER_16_83
*317 FILLER_16_85
*318 FILLER_16_88
*319 FILLER_16_9
*320 FILLER_16_91
*321 FILLER_16_94
*322 FILLER_16_97
*323 FILLER_17_102
*324 FILLER_17_105
*325 FILLER_17_108
*326 FILLER_17_111
*327 FILLER_17_113
*328 FILLER_17_116
*329 FILLER_17_119
*330 FILLER_17_12
*331 FILLER_17_122
*332 FILLER_17_125
*333 FILLER_17_15
*334 FILLER_17_18
*335 FILLER_17_21
*336 FILLER_17_24
*337 FILLER_17_27
*338 FILLER_17_3
*339 FILLER_17_30
*340 FILLER_17_33
*341 FILLER_17_36
*342 FILLER_17_39
*343 FILLER_17_42
*344 FILLER_17_45
*345 FILLER_17_48
*346 FILLER_17_51
*347 FILLER_17_54
*348 FILLER_17_57
*349 FILLER_17_6
*350 FILLER_17_60
*351 FILLER_17_63
*352 FILLER_17_66
*353 FILLER_17_69
*354 FILLER_17_72
*355 FILLER_17_75
*356 FILLER_17_78
*357 FILLER_17_81
*358 FILLER_17_84
*359 FILLER_17_87
*360 FILLER_17_9
*361 FILLER_17_90
*362 FILLER_17_93
*363 FILLER_17_96
*364 FILLER_17_99
*365 FILLER_18_100
*366 FILLER_18_103
*367 FILLER_18_106
*368 FILLER_18_109
*369 FILLER_18_112
*370 FILLER_18_115
*371 FILLER_18_118
*372 FILLER_18_12
*373 FILLER_18_121
*374 FILLER_18_124
*375 FILLER_18_15
*376 FILLER_18_18
*377 FILLER_18_21
*378 FILLER_18_24
*379 FILLER_18_27
*380 FILLER_18_29
*381 FILLER_18_3
*382 FILLER_18_32
*383 FILLER_18_35
*384 FILLER_18_38
*385 FILLER_18_41
*386 FILLER_18_44
*387 FILLER_18_47
*388 FILLER_18_50
*389 FILLER_18_53
*390 FILLER_18_56
*391 FILLER_18_59
*392 FILLER_18_6
*393 FILLER_18_62
*394 FILLER_18_65
*395 FILLER_18_68
*396 FILLER_18_71
*397 FILLER_18_74
*398 FILLER_18_77
*399 FILLER_18_80
*400 FILLER_18_83
*401 FILLER_18_85
*402 FILLER_18_88
*403 FILLER_18_9
*404 FILLER_18_91
*405 FILLER_18_94
*406 FILLER_18_97
*407 FILLER_19_102
*408 FILLER_19_105
*409 FILLER_19_108
*410 FILLER_19_111
*411 FILLER_19_113
*412 FILLER_19_116
*413 FILLER_19_119
*414 FILLER_19_12
*415 FILLER_19_122
*416 FILLER_19_125
*417 FILLER_19_15
*418 FILLER_19_18
*419 FILLER_19_21
*420 FILLER_19_24
*421 FILLER_19_27
*422 FILLER_19_3
*423 FILLER_19_30
*424 FILLER_19_33
*425 FILLER_19_36
*426 FILLER_19_39
*427 FILLER_19_42
*428 FILLER_19_45
*429 FILLER_19_48
*430 FILLER_19_51
*431 FILLER_19_54
*432 FILLER_19_57
*433 FILLER_19_6
*434 FILLER_19_60
*435 FILLER_19_63
*436 FILLER_19_66
*437 FILLER_19_69
*438 FILLER_19_72
*439 FILLER_19_75
*440 FILLER_19_78
*441 FILLER_19_81
*442 FILLER_19_84
*443 FILLER_19_87
*444 FILLER_19_9
*445 FILLER_19_90
*446 FILLER_19_93
*447 FILLER_19_96
*448 FILLER_19_99
*449 FILLER_1_102
*450 FILLER_1_105
*451 FILLER_1_108
*452 FILLER_1_111
*453 FILLER_1_113
*454 FILLER_1_116
*455 FILLER_1_119
*456 FILLER_1_12
*457 FILLER_1_122
*458 FILLER_1_125
*459 FILLER_1_15
*460 FILLER_1_18
*461 FILLER_1_21
*462 FILLER_1_24
*463 FILLER_1_27
*464 FILLER_1_3
*465 FILLER_1_30
*466 FILLER_1_33
*467 FILLER_1_36
*468 FILLER_1_39
*469 FILLER_1_42
*470 FILLER_1_52
*471 FILLER_1_55
*472 FILLER_1_57
*473 FILLER_1_6
*474 FILLER_1_60
*475 FILLER_1_63
*476 FILLER_1_66
*477 FILLER_1_72
*478 FILLER_1_75
*479 FILLER_1_78
*480 FILLER_1_81
*481 FILLER_1_84
*482 FILLER_1_87
*483 FILLER_1_9
*484 FILLER_1_90
*485 FILLER_1_93
*486 FILLER_1_96
*487 FILLER_1_99
*488 FILLER_20_100
*489 FILLER_20_103
*490 FILLER_20_106
*491 FILLER_20_109
*492 FILLER_20_113
*493 FILLER_20_116
*494 FILLER_20_119
*495 FILLER_20_12
*496 FILLER_20_122
*497 FILLER_20_125
*498 FILLER_20_15
*499 FILLER_20_18
*500 FILLER_20_21
*501 FILLER_20_24
*502 FILLER_20_27
*503 FILLER_20_29
*504 FILLER_20_3
*505 FILLER_20_32
*506 FILLER_20_35
*507 FILLER_20_38
*508 FILLER_20_41
*509 FILLER_20_44
*510 FILLER_20_47
*511 FILLER_20_50
*512 FILLER_20_53
*513 FILLER_20_57
*514 FILLER_20_6
*515 FILLER_20_60
*516 FILLER_20_63
*517 FILLER_20_74
*518 FILLER_20_77
*519 FILLER_20_80
*520 FILLER_20_83
*521 FILLER_20_85
*522 FILLER_20_88
*523 FILLER_20_9
*524 FILLER_20_91
*525 FILLER_20_94
*526 FILLER_20_97
*527 FILLER_2_100
*528 FILLER_2_103
*529 FILLER_2_106
*530 FILLER_2_109
*531 FILLER_2_112
*532 FILLER_2_115
*533 FILLER_2_118
*534 FILLER_2_12
*535 FILLER_2_121
*536 FILLER_2_124
*537 FILLER_2_15
*538 FILLER_2_18
*539 FILLER_2_21
*540 FILLER_2_24
*541 FILLER_2_27
*542 FILLER_2_29
*543 FILLER_2_3
*544 FILLER_2_32
*545 FILLER_2_35
*546 FILLER_2_38
*547 FILLER_2_41
*548 FILLER_2_44
*549 FILLER_2_47
*550 FILLER_2_50
*551 FILLER_2_53
*552 FILLER_2_56
*553 FILLER_2_59
*554 FILLER_2_6
*555 FILLER_2_62
*556 FILLER_2_65
*557 FILLER_2_68
*558 FILLER_2_71
*559 FILLER_2_74
*560 FILLER_2_77
*561 FILLER_2_80
*562 FILLER_2_83
*563 FILLER_2_85
*564 FILLER_2_88
*565 FILLER_2_9
*566 FILLER_2_91
*567 FILLER_2_94
*568 FILLER_2_97
*569 FILLER_3_102
*570 FILLER_3_105
*571 FILLER_3_108
*572 FILLER_3_111
*573 FILLER_3_113
*574 FILLER_3_116
*575 FILLER_3_119
*576 FILLER_3_12
*577 FILLER_3_122
*578 FILLER_3_125
*579 FILLER_3_15
*580 FILLER_3_18
*581 FILLER_3_21
*582 FILLER_3_24
*583 FILLER_3_27
*584 FILLER_3_3
*585 FILLER_3_30
*586 FILLER_3_33
*587 FILLER_3_36
*588 FILLER_3_39
*589 FILLER_3_42
*590 FILLER_3_45
*591 FILLER_3_48
*592 FILLER_3_51
*593 FILLER_3_54
*594 FILLER_3_57
*595 FILLER_3_6
*596 FILLER_3_60
*597 FILLER_3_63
*598 FILLER_3_66
*599 FILLER_3_69
*600 FILLER_3_72
*601 FILLER_3_75
*602 FILLER_3_78
*603 FILLER_3_81
*604 FILLER_3_84
*605 FILLER_3_87
*606 FILLER_3_9
*607 FILLER_3_90
*608 FILLER_3_93
*609 FILLER_3_96
*610 FILLER_3_99
*611 FILLER_4_114
*612 FILLER_4_117
*613 FILLER_4_12
*614 FILLER_4_120
*615 FILLER_4_123
*616 FILLER_4_126
*617 FILLER_4_15
*618 FILLER_4_18
*619 FILLER_4_21
*620 FILLER_4_24
*621 FILLER_4_27
*622 FILLER_4_29
*623 FILLER_4_3
*624 FILLER_4_32
*625 FILLER_4_35
*626 FILLER_4_38
*627 FILLER_4_41
*628 FILLER_4_44
*629 FILLER_4_47
*630 FILLER_4_50
*631 FILLER_4_53
*632 FILLER_4_56
*633 FILLER_4_59
*634 FILLER_4_6
*635 FILLER_4_62
*636 FILLER_4_65
*637 FILLER_4_68
*638 FILLER_4_71
*639 FILLER_4_74
*640 FILLER_4_77
*641 FILLER_4_80
*642 FILLER_4_83
*643 FILLER_4_85
*644 FILLER_4_88
*645 FILLER_4_9
*646 FILLER_4_91
*647 FILLER_5_101
*648 FILLER_5_104
*649 FILLER_5_107
*650 FILLER_5_110
*651 FILLER_5_113
*652 FILLER_5_116
*653 FILLER_5_119
*654 FILLER_5_12
*655 FILLER_5_122
*656 FILLER_5_125
*657 FILLER_5_15
*658 FILLER_5_18
*659 FILLER_5_21
*660 FILLER_5_24
*661 FILLER_5_27
*662 FILLER_5_3
*663 FILLER_5_30
*664 FILLER_5_33
*665 FILLER_5_36
*666 FILLER_5_39
*667 FILLER_5_42
*668 FILLER_5_45
*669 FILLER_5_48
*670 FILLER_5_51
*671 FILLER_5_54
*672 FILLER_5_57
*673 FILLER_5_6
*674 FILLER_5_60
*675 FILLER_5_63
*676 FILLER_5_66
*677 FILLER_5_69
*678 FILLER_5_72
*679 FILLER_5_75
*680 FILLER_5_78
*681 FILLER_5_81
*682 FILLER_5_84
*683 FILLER_5_87
*684 FILLER_5_9
*685 FILLER_5_98
*686 FILLER_6_106
*687 FILLER_6_109
*688 FILLER_6_112
*689 FILLER_6_115
*690 FILLER_6_118
*691 FILLER_6_12
*692 FILLER_6_121
*693 FILLER_6_124
*694 FILLER_6_15
*695 FILLER_6_18
*696 FILLER_6_21
*697 FILLER_6_24
*698 FILLER_6_27
*699 FILLER_6_29
*700 FILLER_6_3
*701 FILLER_6_32
*702 FILLER_6_35
*703 FILLER_6_48
*704 FILLER_6_51
*705 FILLER_6_54
*706 FILLER_6_57
*707 FILLER_6_6
*708 FILLER_6_60
*709 FILLER_6_63
*710 FILLER_6_66
*711 FILLER_6_69
*712 FILLER_6_79
*713 FILLER_6_82
*714 FILLER_6_85
*715 FILLER_6_88
*716 FILLER_6_9
*717 FILLER_7_100
*718 FILLER_7_103
*719 FILLER_7_106
*720 FILLER_7_109
*721 FILLER_7_113
*722 FILLER_7_116
*723 FILLER_7_119
*724 FILLER_7_12
*725 FILLER_7_122
*726 FILLER_7_125
*727 FILLER_7_15
*728 FILLER_7_18
*729 FILLER_7_21
*730 FILLER_7_24
*731 FILLER_7_27
*732 FILLER_7_3
*733 FILLER_7_30
*734 FILLER_7_33
*735 FILLER_7_36
*736 FILLER_7_39
*737 FILLER_7_42
*738 FILLER_7_54
*739 FILLER_7_57
*740 FILLER_7_6
*741 FILLER_7_60
*742 FILLER_7_78
*743 FILLER_7_81
*744 FILLER_7_9
*745 FILLER_8_101
*746 FILLER_8_104
*747 FILLER_8_107
*748 FILLER_8_110
*749 FILLER_8_113
*750 FILLER_8_116
*751 FILLER_8_12
*752 FILLER_8_15
*753 FILLER_8_18
*754 FILLER_8_21
*755 FILLER_8_24
*756 FILLER_8_27
*757 FILLER_8_29
*758 FILLER_8_3
*759 FILLER_8_32
*760 FILLER_8_49
*761 FILLER_8_52
*762 FILLER_8_55
*763 FILLER_8_58
*764 FILLER_8_6
*765 FILLER_8_61
*766 FILLER_8_64
*767 FILLER_8_72
*768 FILLER_8_75
*769 FILLER_8_85
*770 FILLER_8_9
*771 FILLER_8_95
*772 FILLER_8_98
*773 FILLER_9_113
*774 FILLER_9_116
*775 FILLER_9_12
*776 FILLER_9_15
*777 FILLER_9_18
*778 FILLER_9_21
*779 FILLER_9_24
*780 FILLER_9_27
*781 FILLER_9_3
*782 FILLER_9_30
*783 FILLER_9_33
*784 FILLER_9_36
*785 FILLER_9_39
*786 FILLER_9_42
*787 FILLER_9_45
*788 FILLER_9_48
*789 FILLER_9_51
*790 FILLER_9_54
*791 FILLER_9_57
*792 FILLER_9_6
*793 FILLER_9_60
*794 FILLER_9_63
*795 FILLER_9_66
*796 FILLER_9_69
*797 FILLER_9_72
*798 FILLER_9_75
*799 FILLER_9_78
*800 FILLER_9_81
*801 FILLER_9_84
*802 FILLER_9_87
*803 FILLER_9_9
*804 FILLER_9_90
*805 PHY_EDGE_ROW_0_Left_21
*806 PHY_EDGE_ROW_0_Right_0
*807 PHY_EDGE_ROW_10_Left_31
*808 PHY_EDGE_ROW_10_Right_10
*809 PHY_EDGE_ROW_11_Left_32
*810 PHY_EDGE_ROW_11_Right_11
*811 PHY_EDGE_ROW_12_Left_33
*812 PHY_EDGE_ROW_12_Right_12
*813 PHY_EDGE_ROW_13_Left_34
*814 PHY_EDGE_ROW_13_Right_13
*815 PHY_EDGE_ROW_14_Left_35
*816 PHY_EDGE_ROW_14_Right_14
*817 PHY_EDGE_ROW_15_Left_36
*818 PHY_EDGE_ROW_15_Right_15
*819 PHY_EDGE_ROW_16_Left_37
*820 PHY_EDGE_ROW_16_Right_16
*821 PHY_EDGE_ROW_17_Left_38
*822 PHY_EDGE_ROW_17_Right_17
*823 PHY_EDGE_ROW_18_Left_39
*824 PHY_EDGE_ROW_18_Right_18
*825 PHY_EDGE_ROW_19_Left_40
*826 PHY_EDGE_ROW_19_Right_19
*827 PHY_EDGE_ROW_1_Left_22
*828 PHY_EDGE_ROW_1_Right_1
*829 PHY_EDGE_ROW_20_Left_41
*830 PHY_EDGE_ROW_20_Right_20
*831 PHY_EDGE_ROW_2_Left_23
*832 PHY_EDGE_ROW_2_Right_2
*833 PHY_EDGE_ROW_3_Left_24
*834 PHY_EDGE_ROW_3_Right_3
*835 PHY_EDGE_ROW_4_Left_25
*836 PHY_EDGE_ROW_4_Right_4
*837 PHY_EDGE_ROW_5_Left_26
*838 PHY_EDGE_ROW_5_Right_5
*839 PHY_EDGE_ROW_6_Left_27
*840 PHY_EDGE_ROW_6_Right_6
*841 PHY_EDGE_ROW_7_Left_28
*842 PHY_EDGE_ROW_7_Right_7
*843 PHY_EDGE_ROW_8_Left_29
*844 PHY_EDGE_ROW_8_Right_8
*845 PHY_EDGE_ROW_9_Left_30
*846 PHY_EDGE_ROW_9_Right_9
*847 TAP_TAPCELL_ROW_0_42
*848 TAP_TAPCELL_ROW_0_43
*849 TAP_TAPCELL_ROW_0_44
*850 TAP_TAPCELL_ROW_0_45
*851 TAP_TAPCELL_ROW_10_64
*852 TAP_TAPCELL_ROW_10_65
*853 TAP_TAPCELL_ROW_11_66
*854 TAP_TAPCELL_ROW_11_67
*855 TAP_TAPCELL_ROW_12_68
*856 TAP_TAPCELL_ROW_12_69
*857 TAP_TAPCELL_ROW_13_70
*858 TAP_TAPCELL_ROW_13_71
*859 TAP_TAPCELL_ROW_14_72
*860 TAP_TAPCELL_ROW_14_73
*861 TAP_TAPCELL_ROW_15_74
*862 TAP_TAPCELL_ROW_15_75
*863 TAP_TAPCELL_ROW_16_76
*864 TAP_TAPCELL_ROW_16_77
*865 TAP_TAPCELL_ROW_17_78
*866 TAP_TAPCELL_ROW_17_79
*867 TAP_TAPCELL_ROW_18_80
*868 TAP_TAPCELL_ROW_18_81
*869 TAP_TAPCELL_ROW_19_82
*870 TAP_TAPCELL_ROW_19_83
*871 TAP_TAPCELL_ROW_1_46
*872 TAP_TAPCELL_ROW_1_47
*873 TAP_TAPCELL_ROW_20_84
*874 TAP_TAPCELL_ROW_20_85
*875 TAP_TAPCELL_ROW_20_86
*876 TAP_TAPCELL_ROW_20_87
*877 TAP_TAPCELL_ROW_2_48
*878 TAP_TAPCELL_ROW_2_49
*879 TAP_TAPCELL_ROW_3_50
*880 TAP_TAPCELL_ROW_3_51
*881 TAP_TAPCELL_ROW_4_52
*882 TAP_TAPCELL_ROW_4_53
*883 TAP_TAPCELL_ROW_5_54
*884 TAP_TAPCELL_ROW_5_55
*885 TAP_TAPCELL_ROW_6_56
*886 TAP_TAPCELL_ROW_6_57
*887 TAP_TAPCELL_ROW_7_58
*888 TAP_TAPCELL_ROW_7_59
*889 TAP_TAPCELL_ROW_8_60
*890 TAP_TAPCELL_ROW_8_61
*891 TAP_TAPCELL_ROW_9_62
*892 TAP_TAPCELL_ROW_9_63
*893 _20_
*894 _21_
*895 _22_
*896 _23_
*897 _24_
*898 _25_
*899 _26_
*900 _27_
*901 _28_
*902 _29_
*903 _30_
*904 _31_
*905 _32_
*906 _33_
*907 _34_
*908 _35_
*909 _36_
*910 _37_
*911 _38_
*912 _39_
*913 _40_
*914 _41_
*915 _42_
*916 _43_
*917 clkbuf_0_clk
*918 clkbuf_1_0__f_clk
*919 clkbuf_1_1__f_clk
*920 hold13
*921 hold14
*922 hold15
*923 hold16
*924 hold17
*925 hold18
*926 hold19
*927 input1
*928 input2
*929 input3
*930 input4
*931 input5
*932 input6
*933 input7
*934 input8
*935 output10
*936 output11
*937 output12
*938 output9

*PORTS
D[0] I
D[1] I
D[2] I
D[3] I
Q[0] O
Q[1] O
Q[2] O
Q[3] O
S_in I
clk I
mode[0] I
mode[1] I
rst I

*D_NET *1 0.00131313
*CONN
*P D[0] I
*I *927:A I *D sky130_fd_sc_hd__clkdlybuf4s25_1
*CAP
1 D[0] 0.000389169
2 *927:A 0
3 *1:13 0.000389169
4 *1:13 *13:11 0.000185587
5 *1:13 *14:13 0.000349201
*RES
1 D[0] *1:13 30.9385 
2 *1:13 *927:A 23 
*END

*D_NET *2 0.000938316
*CONN
*P D[1] I
*I *928:A I *D sky130_fd_sc_hd__clkdlybuf4s25_1
*CAP
1 D[1] 0.000469158
2 *928:A 0.000469158
*RES
1 D[1] *928:A 47.8393 
*END

*D_NET *3 0.000732492
*CONN
*P D[2] I
*I *929:A I *D sky130_fd_sc_hd__clkdlybuf4s25_1
*CAP
1 D[2] 0.000360387
2 *929:A 0.000360387
3 *929:A Q[3] 0
4 *929:A *4:17 1.17182e-05
5 *929:A *51:14 0
*RES
1 D[2] *929:A 45.4157 
*END

*D_NET *4 0.00136938
*CONN
*P D[3] I
*I *930:A I *D sky130_fd_sc_hd__clkdlybuf4s25_1
*CAP
1 D[3] 0.000678833
2 *930:A 0
3 *4:17 0.000678833
4 *929:A *4:17 1.17182e-05
*RES
1 D[3] *4:17 29.4379 
2 *4:17 *930:A 23 
*END

*D_NET *5 0.000755193
*CONN
*P Q[0] O
*I *938:X O *D sky130_fd_sc_hd__clkdlybuf4s25_1
*CAP
1 Q[0] 0.000377596
2 *938:X 0.000377596
*RES
1 *938:X Q[0] 47.9052 
*END

*D_NET *6 0.00076706
*CONN
*P Q[1] O
*I *935:X O *D sky130_fd_sc_hd__clkdlybuf4s25_1
*CAP
1 Q[1] 0.000283498
2 *935:X 0.000283498
3 Q[1] *12:14 0.000200064
*RES
1 *935:X Q[1] 47.5531 
*END

*D_NET *7 0.001021
*CONN
*P Q[2] O
*I *936:X O *D sky130_fd_sc_hd__clkdlybuf4s25_1
*CAP
1 Q[2] 0.000327123
2 *936:X 0.000327123
3 Q[2] *12:14 0.000366749
*RES
1 *936:X Q[2] 48.9616 
*END

*D_NET *8 0.000936516
*CONN
*P Q[3] O
*I *937:X O *D sky130_fd_sc_hd__clkdlybuf4s25_1
*CAP
1 Q[3] 0.000432764
2 *937:X 0.000432764
3 Q[3] *51:8 6.17437e-06
4 Q[3] *51:14 6.48142e-05
5 *929:A Q[3] 0
*RES
1 *937:X Q[3] 46.845 
*END

*D_NET *9 0.000940301
*CONN
*P S_in I
*I *931:A I *D sky130_fd_sc_hd__clkdlybuf4s25_1
*CAP
1 S_in 0.000293528
2 *931:A 0.000293528
3 *931:A *13:11 0.000353246
4 *931:A *54:10 0
*RES
1 S_in *931:A 48.2424 
*END

*D_NET *12 0.00229328
*CONN
*P clk I
*I *917:A I *D sky130_fd_sc_hd__clkbuf_16
*CAP
1 clk 0.000673062
2 *917:A 0.00013384
3 *12:14 0.000806902
4 *917:A *935:A 5.75107e-05
5 *12:14 *935:A 5.51556e-05
6 Q[1] *12:14 0.000200064
7 Q[2] *12:14 0.000366749
*RES
1 clk *12:14 32.0887 
2 *12:14 *917:A 26.1382 
*END

*D_NET *13 0.00120148
*CONN
*P mode[0] I
*I *932:A I *D sky130_fd_sc_hd__clkdlybuf4s25_1
*CAP
1 mode[0] 0.000331322
2 *932:A 0
3 *13:11 0.000331322
4 *13:11 *54:10 0
5 *13:11 *55:8 0
6 *931:A *13:11 0.000353246
7 *1:13 *13:11 0.000185587
*RES
1 mode[0] *13:11 27.0031 
2 *13:11 *932:A 23 
*END

*D_NET *14 0.00139834
*CONN
*P mode[1] I
*I *933:A I *D sky130_fd_sc_hd__clkdlybuf4s25_1
*CAP
1 mode[1] 0.000524569
2 *933:A 0
3 *14:13 0.000524569
4 *1:13 *14:13 0.000349201
*RES
1 mode[1] *14:13 33.0898 
2 *14:13 *933:A 23 
*END

*D_NET *15 0.000780915
*CONN
*P rst I
*I *934:A I *D sky130_fd_sc_hd__clkdlybuf4s25_1
*CAP
1 rst 0.000362952
2 *934:A 0.000362952
3 *934:A *42:14 5.50106e-05
*RES
1 rst *934:A 45.4157 
*END

*D_NET *16 0.00136328
*CONN
*I *921:A I *D sky130_fd_sc_hd__dlygate4sd3_1
*I *900:X O *D sky130_fd_sc_hd__o221a_2
*CAP
1 *921:A 0
2 *900:X 0.000573094
3 *16:10 0.000573094
4 *16:10 *900:C1 5.50049e-05
5 *16:10 *904:A1 0
6 *16:10 *904:B1 3.20188e-05
7 *16:10 *904:C1 2.32101e-05
8 *16:10 *914:CLK 0
9 *16:10 *17:10 4.05196e-05
10 *16:10 *25:17 3.69655e-05
11 *16:10 *25:28 2.93747e-05
12 *16:10 *44:8 0
*RES
1 *900:X *16:10 46.2443 
2 *16:10 *921:A 38 
*END

*D_NET *17 0.00102613
*CONN
*I *925:A I *D sky130_fd_sc_hd__dlygate4sd3_1
*I *904:X O *D sky130_fd_sc_hd__o221a_2
*CAP
1 *925:A 0
2 *904:X 0.000492807
3 *17:10 0.000492807
4 *17:10 *38:10 0
5 *17:10 *48:8 0
6 *16:10 *17:10 4.05196e-05
*RES
1 *904:X *17:10 47.0314 
2 *17:10 *925:A 38 
*END

*D_NET *18 0.00118588
*CONN
*I *915:D I *D sky130_fd_sc_hd__dfxtp_2
*I *908:X O *D sky130_fd_sc_hd__o211a_2
*CAP
1 *915:D 0
2 *908:X 0.000299568
3 *18:6 0.000299568
4 *18:6 *908:A1 0.000454145
5 *18:6 *915:CLK 0.000132599
*RES
1 *908:X *18:6 29.6545 
2 *18:6 *915:D 23 
*END

*D_NET *19 0.0008604
*CONN
*I *923:A I *D sky130_fd_sc_hd__dlygate4sd3_1
*I *912:X O *D sky130_fd_sc_hd__o221a_2
*CAP
1 *923:A 0
2 *912:X 0.00040511
3 *19:10 0.00040511
4 *19:10 *922:A 5.01804e-05
5 *19:10 *36:15 0
6 *19:10 *46:8 0
*RES
1 *912:X *19:10 45.1671 
2 *19:10 *923:A 38 
*END

*D_NET *20 0.00385647
*CONN
*I *903:B1 I *D sky130_fd_sc_hd__o2bb2a_2
*I *907:A2 I *D sky130_fd_sc_hd__a2111o_2
*I *911:A1 I *D sky130_fd_sc_hd__a211o_2
*I *899:A2 I *D sky130_fd_sc_hd__a211o_2
*I *893:Y O *D sky130_fd_sc_hd__inv_2
*CAP
1 *903:B1 0.000259913
2 *907:A2 0
3 *911:A1 0
4 *899:A2 5.27649e-05
5 *893:Y 0
6 *20:31 0.00027696
7 *20:23 0.000789847
8 *20:6 0.000653581
9 *20:4 0.000347842
10 *899:A2 *22:14 3.23857e-06
11 *899:A2 *55:40 3.8293e-05
12 *903:B1 *903:A1_N 0.000317553
13 *903:B1 *26:10 0.000141246
14 *20:6 *26:10 1.5769e-05
15 *20:6 *55:40 0.000140259
16 *20:23 *907:B1 5.56279e-05
17 *20:23 *40:42 6.48356e-05
18 *20:23 *55:44 0.000186876
19 *20:23 *55:50 8.03164e-05
20 *20:31 *907:B1 0.0002457
21 *20:31 *910:A_N 2.18286e-05
22 *20:31 *54:48 0.000100176
23 *20:31 *54:54 6.38433e-05
*RES
1 *893:Y *20:4 23 
2 *20:4 *20:6 2.05071 
3 *20:6 *899:A2 24.1186 
4 *20:6 *20:23 41.6829 
5 *20:23 *20:31 36.09 
6 *20:31 *911:A1 23 
7 *20:23 *907:A2 23 
8 *20:4 *903:B1 30.2914 
*END

*D_NET *21 0.0053256
*CONN
*I *904:C1 I *D sky130_fd_sc_hd__o221a_2
*I *900:C1 I *D sky130_fd_sc_hd__o221a_2
*I *912:C1 I *D sky130_fd_sc_hd__o221a_2
*I *908:C1 I *D sky130_fd_sc_hd__o211a_2
*I *894:Y O *D sky130_fd_sc_hd__inv_2
*CAP
1 *904:C1 1.56221e-05
2 *900:C1 0.00016749
3 *912:C1 2.6584e-05
4 *908:C1 0
5 *894:Y 4.74265e-05
6 *21:40 0.000749482
7 *21:23 0.000799106
8 *21:10 0.000883918
9 *21:8 0.000725192
10 *900:C1 *900:B1 1.28818e-05
11 *900:C1 *23:8 7.0944e-05
12 *900:C1 *25:8 1.22822e-05
13 *900:C1 *25:17 8.85386e-05
14 *900:C1 *55:96 0.000246552
15 *904:C1 *25:17 5.50106e-05
16 *912:C1 *912:B1 5.5792e-05
17 *912:C1 *41:33 7.61229e-06
18 *21:8 *894:A 7.53384e-06
19 *21:10 *908:A2 3.50862e-06
20 *21:23 *908:A2 5.54845e-05
21 *21:23 *35:12 4.41821e-06
22 *21:40 *910:B 4.93895e-05
23 *21:40 *25:28 0
24 *21:40 *27:10 4.6318e-06
25 *21:40 *28:10 0.000650125
26 *21:40 *29:10 0
27 *21:40 *35:12 1.04213e-05
28 *21:40 *41:33 0.000163148
29 *21:40 *43:25 0.000137174
30 *21:40 *55:98 0.000197114
31 *16:10 *900:C1 5.50049e-05
32 *16:10 *904:C1 2.32101e-05
*RES
1 *894:Y *21:8 38.6214 
2 *21:8 *21:10 13.1743 
3 *21:10 *908:C1 38 
4 *21:10 *21:23 4.08071 
5 *21:23 *912:C1 38.6214 
6 *21:23 *21:40 30.1214 
7 *21:40 *900:C1 27.9507 
8 *21:40 *904:C1 23.6214 
*END

*D_NET *22 0.00190069
*CONN
*I *899:B1 I *D sky130_fd_sc_hd__a211o_2
*I *895:X O *D sky130_fd_sc_hd__and3_2
*CAP
1 *899:B1 0
2 *895:X 9.79684e-05
3 *22:14 0.000708895
4 *22:8 0.000806864
5 *22:14 *899:C1 5.56356e-05
6 *22:14 *54:40 4.27248e-05
7 *22:14 *55:40 0.000185368
8 *899:A2 *22:14 3.23857e-06
*RES
1 *895:X *22:8 39.5536 
2 *22:8 *22:14 28.0293 
3 *22:14 *899:B1 23 
*END

*D_NET *23 0.00131076
*CONN
*I *900:B2 I *D sky130_fd_sc_hd__o221a_2
*I *896:X O *D sky130_fd_sc_hd__and3b_2
*CAP
1 *900:B2 0
2 *896:X 0.000323688
3 *23:8 0.000323688
4 *23:8 *900:B1 1.28818e-05
5 *23:8 *25:8 0.000187129
6 *23:8 *54:97 5.10686e-05
7 *23:8 *55:81 0.000170375
8 *23:8 *55:96 0.00017099
9 *900:C1 *23:8 7.0944e-05
*RES
1 *896:X *23:8 32.2179 
2 *23:8 *900:B2 23 
*END

*D_NET *24 0.00317825
*CONN
*I *899:C1 I *D sky130_fd_sc_hd__a211o_2
*I *911:B1 I *D sky130_fd_sc_hd__a211o_2
*I *907:B1 I *D sky130_fd_sc_hd__a2111o_2
*I *897:Y O *D sky130_fd_sc_hd__nor2_2
*CAP
1 *899:C1 2.38756e-05
2 *911:B1 0
3 *907:B1 0.000193123
4 *897:Y 0
5 *24:8 0.000407311
6 *24:4 0.000238063
7 *899:C1 *54:40 2.64616e-05
8 *907:B1 *907:A1 2.10502e-05
9 *907:B1 *910:A_N 0.000359954
10 *907:B1 *33:8 0.000157964
11 *907:B1 *54:48 0.000107232
12 *907:B1 *54:54 3.64246e-05
13 *24:8 *33:8 1.12863e-05
14 *24:8 *53:22 0.000644522
15 *24:8 *54:40 0.000594017
16 *20:23 *907:B1 5.56279e-05
17 *20:31 *907:B1 0.0002457
18 *22:14 *899:C1 5.56356e-05
*RES
1 *897:Y *24:4 23 
2 *24:4 *24:8 23.9486 
3 *24:8 *907:B1 44.7114 
4 *24:8 *911:B1 38 
5 *24:4 *899:C1 23.6214 
*END

*D_NET *25 0.00389997
*CONN
*I *912:A2 I *D sky130_fd_sc_hd__o221a_2
*I *908:A2 I *D sky130_fd_sc_hd__o211a_2
*I *904:A2 I *D sky130_fd_sc_hd__o221a_2
*I *900:A2 I *D sky130_fd_sc_hd__o221a_2
*I *898:X O *D sky130_fd_sc_hd__or2_2
*CAP
1 *912:A2 3.24684e-05
2 *908:A2 0.0001962
3 *904:A2 0
4 *900:A2 0
5 *898:X 0.000123908
6 *25:28 0.000772772
7 *25:17 0.000774594
8 *25:8 0.000354399
9 *908:A2 *35:12 5.75756e-06
10 *908:A2 *45:8 4.41821e-06
11 *912:A2 *907:A1 2.95423e-05
12 *25:17 *904:B1 5.45381e-05
13 *25:28 *904:A1 0.000420388
14 *25:28 *922:A 0
15 *25:28 *28:10 0
16 *25:28 *29:10 6.6869e-05
17 *25:28 *35:12 6.19674e-05
18 *25:28 *41:33 0
19 *25:28 *45:8 6.78836e-05
20 *25:28 *47:14 0.00046597
21 *900:C1 *25:8 1.22822e-05
22 *900:C1 *25:17 8.85386e-05
23 *904:C1 *25:17 5.50106e-05
24 *16:10 *25:17 3.69655e-05
25 *16:10 *25:28 2.93747e-05
26 *21:10 *908:A2 3.50862e-06
27 *21:23 *908:A2 5.54845e-05
28 *21:40 *25:28 0
29 *23:8 *25:8 0.000187129
*RES
1 *898:X *25:8 26.0243 
2 *25:8 *900:A2 23 
3 *25:8 *25:17 4.93 
4 *25:17 *904:A2 23 
5 *25:17 *25:28 29.5 
6 *25:28 *908:A2 41.3143 
7 *25:28 *912:A2 38.6214 
*END

*D_NET *26 0.00165399
*CONN
*I *900:B1 I *D sky130_fd_sc_hd__o221a_2
*I *899:X O *D sky130_fd_sc_hd__a211o_2
*CAP
1 *900:B1 5.62361e-06
2 *899:X 0.000620542
3 *26:10 0.000626165
4 *26:10 *901:A 0
5 *26:10 *901:B 1.34354e-05
6 *26:10 *903:A1_N 0.000128401
7 *26:10 *55:40 5.41288e-05
8 *26:10 *55:98 2.29192e-05
9 *900:C1 *900:B1 1.28818e-05
10 *903:B1 *26:10 0.000141246
11 *20:6 *26:10 1.5769e-05
12 *23:8 *900:B1 1.28818e-05
*RES
1 *899:X *26:10 47.6736 
2 *26:10 *900:B1 38.1502 
*END

*D_NET *27 0.00064361
*CONN
*I *904:B1 I *D sky130_fd_sc_hd__o221a_2
*I *901:X O *D sky130_fd_sc_hd__and3_2
*CAP
1 *904:B1 1.24266e-05
2 *901:X 0.000253687
3 *27:10 0.000266114
4 *27:10 *901:B 0
5 *27:10 *29:10 4.6318e-06
6 *27:10 *50:12 1.55622e-05
7 *16:10 *904:B1 3.20188e-05
8 *21:40 *27:10 4.6318e-06
9 *25:17 *904:B1 5.45381e-05
*RES
1 *901:X *27:10 41.8321 
2 *27:10 *904:B1 38.6162 
*END

*D_NET *28 0.00142513
*CONN
*I *903:A2_N I *D sky130_fd_sc_hd__o2bb2a_2
*I *902:Y O *D sky130_fd_sc_hd__nand2b_2
*CAP
1 *903:A2_N 0
2 *902:Y 0.000370704
3 *28:10 0.000370704
4 *28:10 *29:10 4.21594e-06
5 *28:10 *41:25 2.93845e-05
6 *21:40 *28:10 0.000650125
7 *25:28 *28:10 0
*RES
1 *902:Y *28:10 47.2179 
2 *28:10 *903:A2_N 38 
*END

*D_NET *29 0.000373698
*CONN
*I *904:B2 I *D sky130_fd_sc_hd__o221a_2
*I *903:X O *D sky130_fd_sc_hd__o2bb2a_2
*CAP
1 *904:B2 0
2 *903:X 0.000145634
3 *29:10 0.000145634
4 *29:10 *43:12 6.71408e-06
5 *21:40 *29:10 0
6 *25:28 *29:10 6.6869e-05
7 *27:10 *29:10 4.6318e-06
8 *28:10 *29:10 4.21594e-06
*RES
1 *903:X *29:10 40.5271 
2 *29:10 *904:B2 38 
*END

*D_NET *30 0.000421161
*CONN
*I *907:C1 I *D sky130_fd_sc_hd__a2111o_2
*I *905:X O *D sky130_fd_sc_hd__and3_2
*CAP
1 *907:C1 7.76397e-05
2 *905:X 6.4513e-05
3 *30:8 0.000142153
4 *907:C1 *907:A1 9.79925e-05
5 *30:8 *55:50 3.88629e-05
*RES
1 *905:X *30:8 39.2014 
2 *30:8 *907:C1 39.0979 
*END

*D_NET *31 0.000568128
*CONN
*I *907:D1 I *D sky130_fd_sc_hd__a2111o_2
*I *906:X O *D sky130_fd_sc_hd__and3b_2
*CAP
1 *907:D1 0
2 *906:X 0.000161861
3 *31:10 0.000161861
4 *31:10 *906:B 3.7122e-06
5 *31:10 *47:14 5.3304e-05
6 *31:10 *55:50 0.00018739
*RES
1 *906:X *31:10 41.2314 
2 *31:10 *907:D1 38 
*END

*D_NET *32 0.00137054
*CONN
*I *908:B1 I *D sky130_fd_sc_hd__o211a_2
*I *907:X O *D sky130_fd_sc_hd__a2111o_2
*CAP
1 *908:B1 0.000569031
2 *907:X 0.000114382
3 *32:8 0.000683413
4 *908:B1 *51:14 3.7122e-06
*RES
1 *907:X *32:8 39.9057 
2 *32:8 *908:B1 48.6471 
*END

*D_NET *33 0.000735223
*CONN
*I *911:C1 I *D sky130_fd_sc_hd__a211o_2
*I *909:X O *D sky130_fd_sc_hd__and3_2
*CAP
1 *911:C1 0
2 *909:X 0.000234668
3 *33:8 0.000234668
4 *33:8 *54:40 1.12863e-05
5 *33:8 *54:54 8.5351e-05
6 *907:B1 *33:8 0.000157964
7 *24:8 *33:8 1.12863e-05
*RES
1 *909:X *33:8 42.7229 
2 *33:8 *911:C1 38 
*END

*D_NET *34 0.000368656
*CONN
*I *912:B1 I *D sky130_fd_sc_hd__o221a_2
*I *910:X O *D sky130_fd_sc_hd__and3b_2
*CAP
1 *912:B1 7.57815e-05
2 *910:X 7.57815e-05
3 *912:B1 *907:A1 0.000145163
4 *912:B1 *41:33 1.61385e-05
5 *912:C1 *912:B1 5.5792e-05
*RES
1 *910:X *912:B1 48.7188 
*END

*D_NET *35 0.00410128
*CONN
*I *912:B2 I *D sky130_fd_sc_hd__o221a_2
*I *911:X O *D sky130_fd_sc_hd__a211o_2
*CAP
1 *912:B2 0
2 *911:X 0.00125497
3 *35:12 8.60272e-05
4 *35:6 0.001341
5 *35:6 *906:B 1.46455e-06
6 *35:6 *47:14 0.00115019
7 *35:6 *53:22 2.68177e-05
8 *35:6 *54:48 0.000137039
9 *35:12 *41:33 2.12135e-05
10 *908:A2 *35:12 5.75756e-06
11 *21:23 *35:12 4.41821e-06
12 *21:40 *35:12 1.04213e-05
13 *25:28 *35:12 6.19674e-05
*RES
1 *911:X *35:6 41.2493 
2 *35:6 *35:12 31.9057 
3 *35:12 *912:B2 23 
*END

*D_NET *36 0.00427102
*CONN
*I *919:A I *D sky130_fd_sc_hd__clkbuf_16
*I *918:A I *D sky130_fd_sc_hd__clkbuf_16
*I *917:X O *D sky130_fd_sc_hd__clkbuf_16
*CAP
1 *919:A 0.000106711
2 *918:A 9.34451e-05
3 *917:X 0
4 *36:31 0.000853803
5 *36:15 0.00107573
6 *36:6 0.00172937
7 *36:15 *916:CLK 7.84832e-05
8 *36:15 *37:8 0.000205539
9 *36:15 *41:21 0
10 *36:15 *46:8 3.21884e-05
11 *36:31 *914:CLK 0
12 *36:31 *935:A 4.83778e-05
13 *36:31 *40:10 2.26489e-05
14 *36:31 *40:12 2.472e-05
15 *36:31 *48:8 0
16 *36:31 *57:8 0
17 *19:10 *36:15 0
*RES
1 *917:X *36:6 38 
2 *36:6 *36:15 34.9789 
3 *36:15 *918:A 24.8125 
4 *36:6 *36:31 29.645 
5 *36:31 *919:A 25.0507 
*END

*D_NET *37 0.00174809
*CONN
*I *916:CLK I *D sky130_fd_sc_hd__dfxtp_2
*I *915:CLK I *D sky130_fd_sc_hd__dfxtp_2
*I *918:X O *D sky130_fd_sc_hd__clkbuf_16
*CAP
1 *916:CLK 0.000304303
2 *915:CLK 0.000133756
3 *918:X 0.000220919
4 *37:8 0.000658978
5 *916:CLK *916:D 1.35106e-05
6 *18:6 *915:CLK 0.000132599
7 *36:15 *916:CLK 7.84832e-05
8 *36:15 *37:8 0.000205539
*RES
1 *918:X *37:8 43.4271 
2 *37:8 *915:CLK 41.0036 
3 *37:8 *916:CLK 43.1579 
*END

*D_NET *38 0.00068165
*CONN
*I *913:CLK I *D sky130_fd_sc_hd__dfxtp_2
*I *914:CLK I *D sky130_fd_sc_hd__dfxtp_2
*I *919:X O *D sky130_fd_sc_hd__clkbuf_16
*CAP
1 *913:CLK 0
2 *914:CLK 0.000112091
3 *919:X 0.00014531
4 *38:10 0.000257401
5 *914:CLK *44:8 5.56203e-05
6 *914:CLK *48:8 6.53445e-05
7 *38:10 *48:8 4.5882e-05
8 *16:10 *914:CLK 0
9 *17:10 *38:10 0
10 *36:31 *914:CLK 0
*RES
1 *919:X *38:10 40.5271 
2 *38:10 *914:CLK 40.9621 
3 *38:10 *913:CLK 38 
*END

*D_NET *39 0.000931026
*CONN
*I *895:C I *D sky130_fd_sc_hd__and3_2
*I *927:X O *D sky130_fd_sc_hd__clkdlybuf4s25_1
*CAP
1 *895:C 0
2 *927:X 0.000383398
3 *39:10 0.000383398
4 *39:10 *54:10 9.28739e-05
5 *39:10 *55:8 7.1357e-05
*RES
1 *927:X *39:10 45.0014 
2 *39:10 *895:C 38 
*END

*D_NET *40 0.00713622
*CONN
*I *899:A1 I *D sky130_fd_sc_hd__a211o_2
*I *924:A I *D sky130_fd_sc_hd__dlygate4sd3_1
*I *935:A I *D sky130_fd_sc_hd__clkdlybuf4s25_1
*I *914:Q O *D sky130_fd_sc_hd__dfxtp_2
*CAP
1 *899:A1 0
2 *924:A 0
3 *935:A 0.000767571
4 *914:Q 0.000237758
5 *40:42 0.000109874
6 *40:36 0.00210859
7 *40:12 0.000823427
8 *40:10 0.00229233
9 *40:12 *57:8 0
10 *40:36 *920:A 0.000198196
11 *40:36 *47:8 0.000296599
12 *40:42 *54:40 2.86129e-05
13 *917:A *935:A 5.75107e-05
14 *12:14 *935:A 5.51556e-05
15 *20:23 *40:42 6.48356e-05
16 *36:31 *935:A 4.83778e-05
17 *36:31 *40:10 2.26489e-05
18 *36:31 *40:12 2.472e-05
*RES
1 *914:Q *40:10 41.2521 
2 *40:10 *40:12 1.20143 
3 *40:12 *935:A 49.9521 
4 *40:12 *924:A 38 
5 *40:10 *40:36 42.3014 
6 *40:36 *40:42 32.2579 
7 *40:42 *899:A1 23 
*END

*D_NET *41 0.0048424
*CONN
*I *936:A I *D sky130_fd_sc_hd__clkdlybuf4s25_1
*I *902:B I *D sky130_fd_sc_hd__nand2b_2
*I *910:C I *D sky130_fd_sc_hd__and3b_2
*I *926:A I *D sky130_fd_sc_hd__dlygate4sd3_1
*I *915:Q O *D sky130_fd_sc_hd__dfxtp_2
*CAP
1 *936:A 0.000391363
2 *902:B 0
3 *910:C 0
4 *926:A 0.000378182
5 *915:Q 0
6 *41:33 0.000245567
7 *41:25 0.00116273
8 *41:21 0.00156318
9 *41:6 0.000632835
10 *41:25 *922:A 5.50049e-05
11 *41:25 *47:14 0.000145775
12 *41:33 *907:A1 3.02709e-05
13 *912:B1 *41:33 1.61385e-05
14 *912:C1 *41:33 7.61229e-06
15 *21:40 *41:33 0.000163148
16 *25:28 *41:33 0
17 *28:10 *41:25 2.93845e-05
18 *35:12 *41:33 2.12135e-05
19 *36:15 *41:21 0
*RES
1 *915:Q *41:6 38 
2 *41:6 *926:A 45.1464 
3 *41:6 *41:21 19.7229 
4 *41:21 *41:25 17.3171 
5 *41:25 *41:33 34.262 
6 *41:33 *910:C 23 
7 *41:25 *902:B 23 
8 *41:21 *936:A 30.2914 
*END

*D_NET *42 0.00381974
*CONN
*I *922:A I *D sky130_fd_sc_hd__dlygate4sd3_1
*I *937:A I *D sky130_fd_sc_hd__clkdlybuf4s25_1
*I *916:Q O *D sky130_fd_sc_hd__dfxtp_2
*CAP
1 *922:A 0.000204183
2 *937:A 0
3 *916:Q 0
4 *42:14 0.00159723
5 *42:6 0.00180142
6 *922:A *45:8 0
7 *922:A *47:14 0
8 *42:14 *56:10 5.67058e-05
9 *934:A *42:14 5.50106e-05
10 *19:10 *922:A 5.01804e-05
11 *25:28 *922:A 0
12 *41:25 *922:A 5.50049e-05
*RES
1 *916:Q *42:6 38 
2 *42:6 *42:14 44.6836 
3 *42:14 *937:A 23 
4 *42:6 *922:A 42.2879 
*END

*D_NET *43 0.00246225
*CONN
*I *900:A1 I *D sky130_fd_sc_hd__o221a_2
*I *903:B2 I *D sky130_fd_sc_hd__o2bb2a_2
*I *920:X O *D sky130_fd_sc_hd__dlygate4sd3_1
*CAP
1 *900:A1 0
2 *903:B2 5.34179e-05
3 *920:X 0.000105518
4 *43:25 0.000106427
5 *43:12 0.00088192
6 *43:8 0.000827594
7 *903:B2 *903:A1_N 1.59094e-05
8 *43:8 *904:A1 0
9 *43:12 *903:A1_N 4.60394e-05
10 *43:25 *901:B 6.16531e-05
11 *43:25 *55:98 0.000219882
12 *21:40 *43:25 0.000137174
13 *29:10 *43:12 6.71408e-06
*RES
1 *920:X *43:8 39.5536 
2 *43:8 *43:12 24.1971 
3 *43:12 *903:B2 23.6214 
4 *43:12 *43:25 33.6664 
5 *43:25 *900:A1 23 
*END

*D_NET *44 0.000543282
*CONN
*I *913:D I *D sky130_fd_sc_hd__dfxtp_2
*I *921:X O *D sky130_fd_sc_hd__dlygate4sd3_1
*CAP
1 *913:D 0.000164324
2 *921:X 7.95064e-05
3 *44:8 0.000243831
4 *914:CLK *44:8 5.56203e-05
5 *16:10 *44:8 0
*RES
1 *921:X *44:8 39.5536 
2 *44:8 *913:D 40.3666 
*END

*D_NET *45 0.00232383
*CONN
*I *912:A1 I *D sky130_fd_sc_hd__o221a_2
*I *907:A1 I *D sky130_fd_sc_hd__a2111o_2
*I *922:X O *D sky130_fd_sc_hd__dlygate4sd3_1
*CAP
1 *912:A1 0
2 *907:A1 0.000762191
3 *922:X 9.22965e-05
4 *45:12 0.000796027
5 *45:8 0.000126132
6 *907:A1 *910:A_N 0.000150868
7 *907:B1 *907:A1 2.10502e-05
8 *907:C1 *907:A1 9.79925e-05
9 *908:A2 *45:8 4.41821e-06
10 *912:A2 *907:A1 2.95423e-05
11 *912:B1 *907:A1 0.000145163
12 *922:A *45:8 0
13 *25:28 *45:8 6.78836e-05
14 *41:33 *907:A1 3.02709e-05
*RES
1 *922:X *45:8 39.9057 
2 *45:8 *45:12 15.6214 
3 *45:12 *907:A1 38.3079 
4 *45:12 *912:A1 23 
*END

*D_NET *46 0.000348306
*CONN
*I *916:D I *D sky130_fd_sc_hd__dfxtp_2
*I *923:X O *D sky130_fd_sc_hd__dlygate4sd3_1
*CAP
1 *916:D 7.15154e-05
2 *923:X 7.97881e-05
3 *46:8 0.000151304
4 *916:CLK *916:D 1.35106e-05
5 *19:10 *46:8 0
6 *36:15 *46:8 3.21884e-05
*RES
1 *923:X *46:8 39.5536 
2 *46:8 *916:D 39.1445 
*END

*D_NET *47 0.00522134
*CONN
*I *904:A1 I *D sky130_fd_sc_hd__o221a_2
*I *906:C I *D sky130_fd_sc_hd__and3b_2
*I *924:X O *D sky130_fd_sc_hd__dlygate4sd3_1
*CAP
1 *904:A1 0.000232978
2 *906:C 0
3 *924:X 0.000342119
4 *47:14 0.000698286
5 *47:8 0.00127338
6 *47:8 *920:A 5.67058e-05
7 *47:14 *902:A_N 5.50106e-05
8 *47:14 *906:B 3.06332e-05
9 *922:A *47:14 0
10 *16:10 *904:A1 0
11 *25:28 *904:A1 0.000420388
12 *25:28 *47:14 0.00046597
13 *31:10 *47:14 5.3304e-05
14 *35:6 *47:14 0.00115019
15 *40:36 *47:8 0.000296599
16 *41:25 *47:14 0.000145775
17 *43:8 *904:A1 0
*RES
1 *924:X *47:8 46.7207 
2 *47:8 *47:14 35.3311 
3 *47:14 *906:C 23 
4 *47:8 *904:A1 43.7793 
*END

*D_NET *48 0.000833143
*CONN
*I *914:D I *D sky130_fd_sc_hd__dfxtp_2
*I *925:X O *D sky130_fd_sc_hd__dlygate4sd3_1
*CAP
1 *914:D 1.36537e-05
2 *925:X 0.000347305
3 *48:8 0.000360958
4 *914:CLK *48:8 6.53445e-05
5 *17:10 *48:8 0
6 *36:31 *48:8 0
7 *38:10 *48:8 4.5882e-05
*RES
1 *925:X *48:8 45.1879 
2 *48:8 *914:D 38.1916 
*END

*D_NET *49 0.00134744
*CONN
*I *908:A1 I *D sky130_fd_sc_hd__o211a_2
*I *926:X O *D sky130_fd_sc_hd__dlygate4sd3_1
*CAP
1 *908:A1 0.000233554
2 *926:X 0.000213092
3 *49:10 0.000446645
4 *18:6 *908:A1 0.000454145
*RES
1 *926:X *49:10 41.7079 
2 *49:10 *908:A1 44.1625 
*END

*D_NET *50 0.00250643
*CONN
*I *901:C I *D sky130_fd_sc_hd__and3_2
*I *928:X O *D sky130_fd_sc_hd__clkdlybuf4s25_1
*CAP
1 *901:C 0
2 *928:X 0
3 *50:12 0.00124544
4 *50:6 0.00124544
5 *27:10 *50:12 1.55622e-05
*RES
1 *928:X *50:6 38 
2 *50:6 *50:12 37.0607 
3 *50:12 *901:C 23 
*END

*D_NET *51 0.00329326
*CONN
*I *905:C I *D sky130_fd_sc_hd__and3_2
*I *929:X O *D sky130_fd_sc_hd__clkdlybuf4s25_1
*CAP
1 *905:C 0
2 *929:X 5.75053e-05
3 *51:14 0.00091513
4 *51:8 0.000972636
5 *51:14 *52:16 0.00127329
6 Q[3] *51:8 6.17437e-06
7 Q[3] *51:14 6.48142e-05
8 *908:B1 *51:14 3.7122e-06
9 *929:A *51:14 0
*RES
1 *929:X *51:8 38.6214 
2 *51:8 *51:14 36.0043 
3 *51:14 *905:C 23 
*END

*D_NET *52 0.00305855
*CONN
*I *909:C I *D sky130_fd_sc_hd__and3_2
*I *930:X O *D sky130_fd_sc_hd__clkdlybuf4s25_1
*CAP
1 *909:C 0
2 *930:X 0
3 *52:16 0.000751516
4 *52:6 0.000751516
5 *52:16 *905:A 0.000176654
6 *52:16 *909:A 1.3523e-05
7 *52:16 *909:B 2.75707e-05
8 *52:16 *55:50 6.44773e-05
9 *51:14 *52:16 0.00127329
*RES
1 *930:X *52:6 38 
2 *52:6 *52:16 34.8029 
3 *52:16 *909:C 23 
*END

*D_NET *53 0.00451897
*CONN
*I *896:C I *D sky130_fd_sc_hd__and3b_2
*I *911:A2 I *D sky130_fd_sc_hd__a211o_2
*I *931:X O *D sky130_fd_sc_hd__clkdlybuf4s25_1
*CAP
1 *896:C 4.05096e-05
2 *911:A2 0
3 *931:X 0.000304583
4 *53:22 0.000598462
5 *53:8 0.000943555
6 *896:C *896:B 3.15373e-05
7 *896:C *54:97 0.000147721
8 *53:8 *896:B 3.05357e-05
9 *53:8 *54:20 0.0010451
10 *53:8 *54:91 9.65021e-05
11 *53:8 *54:97 2.68795e-05
12 *53:8 *55:12 4.93341e-05
13 *53:8 *55:19 0.0004113
14 *53:22 *897:B 6.07306e-05
15 *53:22 *54:48 6.17437e-06
16 *53:22 *55:23 5.47045e-05
17 *24:8 *53:22 0.000644522
18 *35:6 *53:22 2.68177e-05
*RES
1 *931:X *53:8 37.4586 
2 *53:8 *53:22 43.0707 
3 *53:22 *911:A2 23 
4 *53:8 *896:C 24.6209 
*END

*D_NET *54 0.0129725
*CONN
*I *895:A I *D sky130_fd_sc_hd__and3_2
*I *896:A_N I *D sky130_fd_sc_hd__and3b_2
*I *898:A I *D sky130_fd_sc_hd__or2_2
*I *901:A I *D sky130_fd_sc_hd__and3_2
*I *903:A1_N I *D sky130_fd_sc_hd__o2bb2a_2
*I *897:A I *D sky130_fd_sc_hd__nor2_2
*I *906:A_N I *D sky130_fd_sc_hd__and3b_2
*I *910:A_N I *D sky130_fd_sc_hd__and3b_2
*I *905:A I *D sky130_fd_sc_hd__and3_2
*I *909:A I *D sky130_fd_sc_hd__and3_2
*I *932:X O *D sky130_fd_sc_hd__clkdlybuf4s25_1
*CAP
1 *895:A 0
2 *896:A_N 0
3 *898:A 0
4 *901:A 0.000416447
5 *903:A1_N 0.000418032
6 *897:A 0
7 *906:A_N 0
8 *910:A_N 0.000774253
9 *905:A 3.76585e-05
10 *909:A 5.88435e-05
11 *932:X 0.000178753
12 *54:99 0.000834479
13 *54:97 0.000648372
14 *54:91 0.000701692
15 *54:54 0.000333302
16 *54:48 0.00117078
17 *54:40 0.000669211
18 *54:26 0.000620473
19 *54:20 0.000718388
20 *54:12 0.000554078
21 *54:10 0.000178753
22 *901:A *901:B 0
23 *903:A1_N *55:81 0
24 *903:A1_N *55:98 0
25 *905:A *909:B 6.84697e-05
26 *909:A *909:B 4.84129e-06
27 *54:10 *55:8 8.4047e-05
28 *54:26 *897:B 6.28499e-05
29 *54:26 *55:23 0.000101008
30 *54:97 *55:81 0.000315857
31 *54:97 *55:96 9.16403e-05
32 *896:C *54:97 0.000147721
33 *899:C1 *54:40 2.64616e-05
34 *903:B1 *903:A1_N 0.000317553
35 *903:B2 *903:A1_N 1.59094e-05
36 *907:A1 *910:A_N 0.000150868
37 *907:B1 *910:A_N 0.000359954
38 *907:B1 *54:48 0.000107232
39 *907:B1 *54:54 3.64246e-05
40 *931:A *54:10 0
41 *13:11 *54:10 0
42 *20:31 *910:A_N 2.18286e-05
43 *20:31 *54:48 0.000100176
44 *20:31 *54:54 6.38433e-05
45 *22:14 *54:40 4.27248e-05
46 *23:8 *54:97 5.10686e-05
47 *24:8 *54:40 0.000594017
48 *26:10 *901:A 0
49 *26:10 *903:A1_N 0.000128401
50 *33:8 *54:40 1.12863e-05
51 *33:8 *54:54 8.5351e-05
52 *35:6 *54:48 0.000137039
53 *39:10 *54:10 9.28739e-05
54 *40:42 *54:40 2.86129e-05
55 *43:12 *903:A1_N 4.60394e-05
56 *52:16 *905:A 0.000176654
57 *52:16 *909:A 1.3523e-05
58 *53:8 *54:20 0.0010451
59 *53:8 *54:91 9.65021e-05
60 *53:8 *54:97 2.68795e-05
61 *53:22 *54:48 6.17437e-06
*RES
1 *932:X *54:10 41.2314 
2 *54:10 *54:12 15 
3 *54:12 *54:20 13.195 
4 *54:20 *54:26 32.2579 
5 *54:26 *54:40 41.9107 
6 *54:40 *54:48 18.625 
7 *54:48 *54:54 19.5157 
8 *54:54 *909:A 24.0979 
9 *54:54 *905:A 25.0507 
10 *54:48 *910:A_N 49.6 
11 *54:40 *906:A_N 23 
12 *54:26 *897:A 23 
13 *54:20 *54:91 1.09786 
14 *54:91 *54:97 10.1914 
15 *54:97 *54:99 15 
16 *54:99 *903:A1_N 46.1304 
17 *54:99 *901:A 45.0221 
18 *54:97 *898:A 23 
19 *54:91 *896:A_N 23 
20 *54:12 *895:A 23 
*END

*D_NET *55 0.0122567
*CONN
*I *896:B I *D sky130_fd_sc_hd__and3b_2
*I *893:A I *D sky130_fd_sc_hd__inv_2
*I *901:B I *D sky130_fd_sc_hd__and3_2
*I *902:A_N I *D sky130_fd_sc_hd__nand2b_2
*I *910:B I *D sky130_fd_sc_hd__and3b_2
*I *898:B I *D sky130_fd_sc_hd__or2_2
*I *906:B I *D sky130_fd_sc_hd__and3b_2
*I *905:B I *D sky130_fd_sc_hd__and3_2
*I *909:B I *D sky130_fd_sc_hd__and3_2
*I *897:B I *D sky130_fd_sc_hd__nor2_2
*I *895:B I *D sky130_fd_sc_hd__and3_2
*I *933:X O *D sky130_fd_sc_hd__clkdlybuf4s25_1
*CAP
1 *896:B 0.000173377
2 *893:A 0
3 *901:B 0.000174633
4 *902:A_N 2.79004e-05
5 *910:B 0.000191909
6 *898:B 0
7 *906:B 0.00011839
8 *905:B 1.72917e-05
9 *909:B 0.000166033
10 *897:B 2.4493e-05
11 *895:B 0
12 *933:X 0.000326986
13 *55:98 0.000673378
14 *55:96 0.000920678
15 *55:81 0.000501668
16 *55:50 0.000579281
17 *55:44 0.000863481
18 *55:42 0.000558326
19 *55:40 0.000372317
20 *55:23 0.000536946
21 *55:19 0.00104255
22 *55:12 0.000852103
23 *55:8 0.000450054
24 *896:C *896:B 3.15373e-05
25 *899:A2 *55:40 3.8293e-05
26 *900:C1 *55:96 0.000246552
27 *901:A *901:B 0
28 *903:A1_N *55:81 0
29 *903:A1_N *55:98 0
30 *905:A *909:B 6.84697e-05
31 *909:A *909:B 4.84129e-06
32 *13:11 *55:8 0
33 *20:6 *55:40 0.000140259
34 *20:23 *55:44 0.000186876
35 *20:23 *55:50 8.03164e-05
36 *21:40 *910:B 4.93895e-05
37 *21:40 *55:98 0.000197114
38 *22:14 *55:40 0.000185368
39 *23:8 *55:81 0.000170375
40 *23:8 *55:96 0.00017099
41 *26:10 *901:B 1.34354e-05
42 *26:10 *55:40 5.41288e-05
43 *26:10 *55:98 2.29192e-05
44 *27:10 *901:B 0
45 *30:8 *55:50 3.88629e-05
46 *31:10 *906:B 3.7122e-06
47 *31:10 *55:50 0.00018739
48 *35:6 *906:B 1.46455e-06
49 *39:10 *55:8 7.1357e-05
50 *43:25 *901:B 6.16531e-05
51 *43:25 *55:98 0.000219882
52 *47:14 *902:A_N 5.50106e-05
53 *47:14 *906:B 3.06332e-05
54 *52:16 *909:B 2.75707e-05
55 *52:16 *55:50 6.44773e-05
56 *53:8 *896:B 3.05357e-05
57 *53:8 *55:12 4.93341e-05
58 *53:8 *55:19 0.0004113
59 *53:22 *897:B 6.07306e-05
60 *53:22 *55:23 5.47045e-05
61 *54:10 *55:8 8.4047e-05
62 *54:26 *897:B 6.28499e-05
63 *54:26 *55:23 0.000101008
64 *54:97 *55:81 0.000315857
65 *54:97 *55:96 9.16403e-05
*RES
1 *933:X *55:8 44.8357 
2 *55:8 *55:12 16.5743 
3 *55:12 *895:B 23 
4 *55:12 *55:19 11.5793 
5 *55:19 *55:23 17.9621 
6 *55:23 *897:B 38.8493 
7 *55:23 *55:40 21.38 
8 *55:40 *55:42 15 
9 *55:42 *55:44 7.89214 
10 *55:44 *55:50 23.1821 
11 *55:50 *909:B 26.5007 
12 *55:50 *905:B 23.4971 
13 *55:44 *906:B 39.5743 
14 *55:42 *55:81 20.7379 
15 *55:81 *898:B 23 
16 *55:81 *55:96 21.4007 
17 *55:96 *55:98 10.7093 
18 *55:98 *910:B 41.6664 
19 *55:98 *902:A_N 38.6214 
20 *55:96 *901:B 40.9621 
21 *55:40 *893:A 23 
22 *55:19 *896:B 25.5271 
*END

*D_NET *56 0.000857779
*CONN
*I *894:A I *D sky130_fd_sc_hd__inv_2
*I *934:X O *D sky130_fd_sc_hd__clkdlybuf4s25_1
*CAP
1 *894:A 0.000193376
2 *934:X 0.000203394
3 *56:10 0.00039677
4 *21:8 *894:A 7.53384e-06
5 *42:14 *56:10 5.67058e-05
*RES
1 *934:X *56:10 41.9357 
2 *56:10 *894:A 41.48 
*END

*D_NET *57 0.00250341
*CONN
*I *938:A I *D sky130_fd_sc_hd__clkdlybuf4s25_1
*I *920:A I *D sky130_fd_sc_hd__dlygate4sd3_1
*I *913:Q O *D sky130_fd_sc_hd__dfxtp_2
*CAP
1 *938:A 0.000298888
2 *920:A 0.000257406
3 *913:Q 0.00056796
4 *57:28 0.000593532
5 *57:8 0.000530721
6 *36:31 *57:8 0
7 *40:12 *57:8 0
8 *40:36 *920:A 0.000198196
9 *47:8 *920:A 5.67058e-05
*RES
1 *913:Q *57:8 42.7229 
2 *57:8 *920:A 43.8621 
3 *913:Q *57:28 42.3086 
4 *57:28 *938:A 43.3857 
*END
