*SPEF "ieee 1481-1999"
*DESIGN "u_s_r"
*DATE "20:26:50 Wednesday June 03, 2026"
*VENDOR "The OpenROAD Project"
*PROGRAM "OpenROAD"
*VERSION "dcf36133a369abc8f3c5e5738cd4d82e4903c0e0"
*DESIGN_FLOW "NAME_SCOPE LOCAL" "PIN_CAP NONE"
*DIVIDER /
*DELIMITER :
*BUS_DELIMITER []
*T_UNIT 1 NS
*C_UNIT 1 PF
*R_UNIT 1 OHM
*L_UNIT 1 HENRY

*NAME_MAP
*1 D[0]
*2 D[1]
*3 D[2]
*4 D[3]
*5 Q[0]
*6 Q[1]
*7 Q[2]
*8 Q[3]
*9 S_in
*12 clk
*13 mode[0]
*14 mode[1]
*15 rst
*16 _00_
*17 _01_
*18 _02_
*19 _03_
*20 _04_
*21 _05_
*22 _06_
*23 _07_
*24 _08_
*25 _09_
*26 _10_
*27 _11_
*28 _12_
*29 _13_
*30 _14_
*31 _15_
*32 _16_
*33 _17_
*34 _18_
*35 _19_
*36 clknet_0_clk
*37 clknet_1_0__leaf_clk
*38 clknet_1_1__leaf_clk
*39 net1
*40 net10
*41 net11
*42 net12
*43 net13
*44 net14
*45 net15
*46 net16
*47 net17
*48 net18
*49 net19
*50 net2
*51 net3
*52 net4
*53 net5
*54 net6
*55 net7
*56 net8
*57 net9
*58 FILLER_0_29
*59 FILLER_0_3
*60 FILLER_0_6
*61 FILLER_0_62
*62 FILLER_0_9
*63 FILLER_10_12
*64 FILLER_10_15
*65 FILLER_10_18
*66 FILLER_10_21
*67 FILLER_10_24
*68 FILLER_10_27
*69 FILLER_10_29
*70 FILLER_10_3
*71 FILLER_10_40
*72 FILLER_10_6
*73 FILLER_10_70
*74 FILLER_10_9
*75 FILLER_11_12
*76 FILLER_11_15
*77 FILLER_11_18
*78 FILLER_11_21
*79 FILLER_11_24
*80 FILLER_11_27
*81 FILLER_11_29
*82 FILLER_11_3
*83 FILLER_11_32
*84 FILLER_11_50
*85 FILLER_11_53
*86 FILLER_11_6
*87 FILLER_11_65
*88 FILLER_11_68
*89 FILLER_11_71
*90 FILLER_11_9
*91 FILLER_1_20
*92 FILLER_1_3
*93 FILLER_1_54
*94 FILLER_1_57
*95 FILLER_1_6
*96 FILLER_1_68
*97 FILLER_1_71
*98 FILLER_1_9
*99 FILLER_2_12
*100 FILLER_2_15
*101 FILLER_2_18
*102 FILLER_2_29
*103 FILLER_2_3
*104 FILLER_2_32
*105 FILLER_2_6
*106 FILLER_2_9
*107 FILLER_3_12
*108 FILLER_3_15
*109 FILLER_3_18
*110 FILLER_3_21
*111 FILLER_3_28
*112 FILLER_3_3
*113 FILLER_3_55
*114 FILLER_3_6
*115 FILLER_3_68
*116 FILLER_3_71
*117 FILLER_3_9
*118 FILLER_4_12
*119 FILLER_4_15
*120 FILLER_4_18
*121 FILLER_4_21
*122 FILLER_4_24
*123 FILLER_4_27
*124 FILLER_4_29
*125 FILLER_4_3
*126 FILLER_4_37
*127 FILLER_4_6
*128 FILLER_4_71
*129 FILLER_4_9
*130 FILLER_5_12
*131 FILLER_5_15
*132 FILLER_5_18
*133 FILLER_5_21
*134 FILLER_5_24
*135 FILLER_5_27
*136 FILLER_5_3
*137 FILLER_5_30
*138 FILLER_5_33
*139 FILLER_5_36
*140 FILLER_5_39
*141 FILLER_5_42
*142 FILLER_5_45
*143 FILLER_5_57
*144 FILLER_5_6
*145 FILLER_5_60
*146 FILLER_5_63
*147 FILLER_5_9
*148 FILLER_6_12
*149 FILLER_6_15
*150 FILLER_6_18
*151 FILLER_6_21
*152 FILLER_6_24
*153 FILLER_6_27
*154 FILLER_6_29
*155 FILLER_6_3
*156 FILLER_6_32
*157 FILLER_6_35
*158 FILLER_6_38
*159 FILLER_6_45
*160 FILLER_6_48
*161 FILLER_6_6
*162 FILLER_6_70
*163 FILLER_6_9
*164 FILLER_7_12
*165 FILLER_7_15
*166 FILLER_7_18
*167 FILLER_7_21
*168 FILLER_7_24
*169 FILLER_7_27
*170 FILLER_7_3
*171 FILLER_7_30
*172 FILLER_7_33
*173 FILLER_7_36
*174 FILLER_7_55
*175 FILLER_7_6
*176 FILLER_7_65
*177 FILLER_7_68
*178 FILLER_7_71
*179 FILLER_7_9
*180 FILLER_8_12
*181 FILLER_8_15
*182 FILLER_8_18
*183 FILLER_8_21
*184 FILLER_8_24
*185 FILLER_8_27
*186 FILLER_8_29
*187 FILLER_8_3
*188 FILLER_8_52
*189 FILLER_8_6
*190 FILLER_8_71
*191 FILLER_8_9
*192 FILLER_9_12
*193 FILLER_9_15
*194 FILLER_9_18
*195 FILLER_9_21
*196 FILLER_9_24
*197 FILLER_9_27
*198 FILLER_9_3
*199 FILLER_9_30
*200 FILLER_9_33
*201 FILLER_9_57
*202 FILLER_9_6
*203 FILLER_9_67
*204 FILLER_9_70
*205 FILLER_9_9
*206 PHY_EDGE_ROW_0_Left_12
*207 PHY_EDGE_ROW_0_Right_0
*208 PHY_EDGE_ROW_10_Left_22
*209 PHY_EDGE_ROW_10_Right_10
*210 PHY_EDGE_ROW_11_Left_23
*211 PHY_EDGE_ROW_11_Right_11
*212 PHY_EDGE_ROW_1_Left_13
*213 PHY_EDGE_ROW_1_Right_1
*214 PHY_EDGE_ROW_2_Left_14
*215 PHY_EDGE_ROW_2_Right_2
*216 PHY_EDGE_ROW_3_Left_15
*217 PHY_EDGE_ROW_3_Right_3
*218 PHY_EDGE_ROW_4_Left_16
*219 PHY_EDGE_ROW_4_Right_4
*220 PHY_EDGE_ROW_5_Left_17
*221 PHY_EDGE_ROW_5_Right_5
*222 PHY_EDGE_ROW_6_Left_18
*223 PHY_EDGE_ROW_6_Right_6
*224 PHY_EDGE_ROW_7_Left_19
*225 PHY_EDGE_ROW_7_Right_7
*226 PHY_EDGE_ROW_8_Left_20
*227 PHY_EDGE_ROW_8_Right_8
*228 PHY_EDGE_ROW_9_Left_21
*229 PHY_EDGE_ROW_9_Right_9
*230 TAP_TAPCELL_ROW_0_24
*231 TAP_TAPCELL_ROW_0_25
*232 TAP_TAPCELL_ROW_10_35
*233 TAP_TAPCELL_ROW_11_36
*234 TAP_TAPCELL_ROW_11_37
*235 TAP_TAPCELL_ROW_1_26
*236 TAP_TAPCELL_ROW_2_27
*237 TAP_TAPCELL_ROW_3_28
*238 TAP_TAPCELL_ROW_4_29
*239 TAP_TAPCELL_ROW_5_30
*240 TAP_TAPCELL_ROW_6_31
*241 TAP_TAPCELL_ROW_7_32
*242 TAP_TAPCELL_ROW_8_33
*243 TAP_TAPCELL_ROW_9_34
*244 _20_
*245 _21_
*246 _22_
*247 _23_
*248 _24_
*249 _25_
*250 _26_
*251 _27_
*252 _28_
*253 _29_
*254 _30_
*255 _31_
*256 _32_
*257 _33_
*258 _34_
*259 _35_
*260 _36_
*261 _37_
*262 _38_
*263 _39_
*264 _40_
*265 _41_
*266 _42_
*267 _43_
*268 clkbuf_0_clk
*269 clkbuf_1_0__f_clk
*270 clkbuf_1_1__f_clk
*271 hold13
*272 hold14
*273 hold15
*274 hold16
*275 hold17
*276 hold18
*277 hold19
*278 input1
*279 input2
*280 input3
*281 input4
*282 input5
*283 input6
*284 input7
*285 input8
*286 output10
*287 output11
*288 output12
*289 output9

*PORTS
D[0] I
D[1] I
D[2] I
D[3] I
Q[0] O
Q[1] O
Q[2] O
Q[3] O
S_in I
clk I
mode[0] I
mode[1] I
rst I

*D_NET *1 0.00295176
*CONN
*P D[0] I
*I *278:A I *D sky130_fd_sc_hd__clkdlybuf4s25_1
*CAP
1 D[0] 0.000753096
2 *278:A 0
3 *1:17 0.000753096
4 *1:17 *250:B1 3.86664e-05
5 *1:17 *3:17 0.000510771
6 *1:17 *9:13 0.000448986
7 *1:17 *20:41 0
8 *1:17 *22:12 0.000225616
9 *1:17 *52:8 0
10 *1:17 *57:10 0.000187288
11 *1:17 *57:24 3.42398e-05
*RES
1 D[0] *1:17 34.8236 
2 *1:17 *278:A 23 
*END

*D_NET *2 0.00129704
*CONN
*P D[1] I
*I *279:A I *D sky130_fd_sc_hd__clkdlybuf4s25_1
*CAP
1 D[1] 0.000474464
2 *279:A 0
3 *2:9 0.000474464
4 *2:9 *285:A 0.000341938
5 *2:9 *50:10 6.17437e-06
6 *2:9 *56:10 0
*RES
1 D[1] *2:9 27.1179 
2 *2:9 *279:A 23 
*END

*D_NET *3 0.0026532
*CONN
*P D[2] I
*I *280:A I *D sky130_fd_sc_hd__clkdlybuf4s25_1
*CAP
1 D[2] 0.000802069
2 *280:A 0
3 *3:17 0.000802069
4 *3:17 *283:A 0.000135799
5 *3:17 *9:13 0.000218293
6 *3:17 *14:9 0
7 *3:17 *52:8 0
8 *3:17 *53:8 0.000171906
9 *3:17 *54:10 1.22906e-05
10 *1:17 *3:17 0.000510771
*RES
1 D[2] *3:17 49.1193 
2 *3:17 *280:A 38 
*END

*D_NET *4 0.00100917
*CONN
*P D[3] I
*I *281:A I *D sky130_fd_sc_hd__clkdlybuf4s25_1
*CAP
1 D[3] 0.000354945
2 *281:A 0.000354945
3 *281:A *250:B1 1.12863e-05
4 *281:A *9:13 0.00027669
5 *281:A *24:31 1.13013e-05
*RES
1 D[3] *281:A 47.135 
*END

*D_NET *5 0.00126263
*CONN
*P Q[0] O
*I *289:X O *D sky130_fd_sc_hd__clkdlybuf4s25_1
*CAP
1 Q[0] 0.000366364
2 *289:X 0.000181261
3 *5:8 0.000547625
4 *5:8 *40:14 0.000167384
*RES
1 *289:X *5:8 42.5468 
2 *5:8 Q[0] 9.27307 
*END

*D_NET *6 0.00281785
*CONN
*P Q[1] O
*I *286:X O *D sky130_fd_sc_hd__clkdlybuf4s25_1
*CAP
1 Q[1] 0.000810236
2 *286:X 0.000123593
3 *6:8 0.000933829
4 Q[1] Q[3] 0.000380167
5 *6:8 *36:19 5.44006e-05
6 *6:8 *37:23 0.00017884
7 *6:8 *45:21 0.000336779
*RES
1 *286:X *6:8 42.5468 
2 *6:8 Q[1] 10.6469 
*END

*D_NET *7 0.00164034
*CONN
*P Q[2] O
*I *287:X O *D sky130_fd_sc_hd__clkdlybuf4s25_1
*CAP
1 Q[2] 0.000251056
2 *287:X 0.000412899
3 *7:8 0.000663955
4 Q[2] *12:10 0.000312425
*RES
1 *287:X *7:8 43.3857 
2 *7:8 Q[2] 7.62286 
*END

*D_NET *8 0.00212899
*CONN
*P Q[3] O
*I *288:X O *D sky130_fd_sc_hd__clkdlybuf4s25_1
*CAP
1 Q[3] 0.00024122
2 *288:X 0.000430336
3 *8:8 0.000671556
4 *8:8 *288:A 0.000126936
5 *8:8 *42:8 0.000278773
6 Q[1] Q[3] 0.000380167
*RES
1 *288:X *8:8 48.5332 
2 *8:8 Q[3] 9.27307 
*END

*D_NET *9 0.0020196
*CONN
*P S_in I
*I *282:A I *D sky130_fd_sc_hd__clkdlybuf4s25_1
*CAP
1 S_in 0.000386203
2 *282:A 0
3 *9:13 0.000386203
4 *9:13 *248:A 0.000204748
5 *9:13 *283:A 9.84794e-05
6 *281:A *9:13 0.00027669
7 *1:17 *9:13 0.000448986
8 *3:17 *9:13 0.000218293
*RES
1 S_in *9:13 28.8993 
2 *9:13 *282:A 23 
*END

*D_NET *12 0.002827
*CONN
*P clk I
*I *268:A I *D sky130_fd_sc_hd__clkbuf_16
*CAP
1 clk 0.000880037
2 *268:A 0
3 *12:10 0.000880037
4 *12:10 *259:A2 0
5 *12:10 *21:59 0.000441537
6 *12:10 *25:38 0
7 *12:10 *28:10 5.22713e-05
8 *12:10 *29:10 0
9 *12:10 *36:19 2.05505e-05
10 *12:10 *36:31 0.000240141
11 *12:10 *41:45 0
12 Q[2] *12:10 0.000312425
*RES
1 clk *12:10 23.5314 
2 *12:10 *268:A 38 
*END

*D_NET *13 0.00165154
*CONN
*P mode[0] I
*I *283:A I *D sky130_fd_sc_hd__clkdlybuf4s25_1
*CAP
1 mode[0] 0.000352097
2 *283:A 0.000352097
3 *283:A *248:A 0.000357631
4 *283:A *14:9 0.000256954
5 *283:A *54:6 9.84794e-05
6 *3:17 *283:A 0.000135799
7 *9:13 *283:A 9.84794e-05
*RES
1 mode[0] *283:A 49.8486 
*END

*D_NET *14 0.00231089
*CONN
*P mode[1] I
*I *284:A I *D sky130_fd_sc_hd__clkdlybuf4s25_1
*CAP
1 mode[1] 0.000628549
2 *284:A 0
3 *14:9 0.000628549
4 *14:9 *257:A_N 5.50049e-05
5 *14:9 *30:6 5.41288e-05
6 *14:9 *51:10 0
7 *14:9 *52:8 0.000687708
8 *14:9 *54:10 0
9 *14:9 *55:19 0
10 *283:A *14:9 0.000256954
11 *3:17 *14:9 0
*RES
1 mode[1] *14:9 31.6957 
2 *14:9 *284:A 23 
*END

*D_NET *15 0.000964355
*CONN
*P rst I
*I *285:A I *D sky130_fd_sc_hd__clkdlybuf4s25_1
*CAP
1 rst 0.000311209
2 *285:A 0.000311209
3 *2:9 *285:A 0.000341938
*RES
1 rst *285:A 46.9486 
*END

*D_NET *16 0.000409543
*CONN
*I *274:A I *D sky130_fd_sc_hd__dlygate4sd3_1
*I *251:X O *D sky130_fd_sc_hd__o221a_2
*CAP
1 *274:A 1.24964e-05
2 *251:X 0.000107808
3 *16:8 0.000120305
4 *274:A *20:25 5.50106e-05
5 *274:A *24:12 3.22879e-05
6 *16:8 *24:46 8.16356e-05
7 *16:8 *40:30 0
8 *16:8 *46:8 0
*RES
1 *251:X *16:8 40.2579 
2 *16:8 *274:A 38.6214 
*END

*D_NET *17 0.00153371
*CONN
*I *276:A I *D sky130_fd_sc_hd__dlygate4sd3_1
*I *255:X O *D sky130_fd_sc_hd__o221a_2
*CAP
1 *276:A 0
2 *255:X 0.000606761
3 *17:10 0.000606761
4 *17:10 *255:A1 0.00030375
5 *17:10 *265:D 1.64354e-05
6 *17:10 *40:14 0
7 *17:10 *47:16 0
*RES
1 *255:X *17:10 46.7207 
2 *17:10 *276:A 38 
*END

*D_NET *18 0.0017149
*CONN
*I *266:D I *D sky130_fd_sc_hd__dfxtp_2
*I *259:X O *D sky130_fd_sc_hd__o211a_2
*CAP
1 *266:D 0.000172018
2 *259:X 0.000365742
3 *18:14 0.000537761
4 *266:D *21:59 1.39317e-05
5 *18:14 *259:A1 6.96176e-05
6 *18:14 *259:A2 0.000260912
7 *18:14 *21:59 0.000247344
8 *18:14 *32:26 4.75766e-05
*RES
1 *259:X *18:14 46.4929 
2 *18:14 *266:D 40.5737 
*END

*D_NET *19 0.0013271
*CONN
*I *272:A I *D sky130_fd_sc_hd__dlygate4sd3_1
*I *263:X O *D sky130_fd_sc_hd__o221a_2
*CAP
1 *272:A 0
2 *263:X 0.000580823
3 *19:10 0.000580823
4 *19:10 *244:A 1.40087e-05
5 *19:10 *267:D 1.64354e-05
6 *19:10 *20:57 0
7 *19:10 *57:30 0.000135008
*RES
1 *263:X *19:10 45.2914 
2 *19:10 *272:A 38 
*END

*D_NET *20 0.00729389
*CONN
*I *254:B1 I *D sky130_fd_sc_hd__o2bb2a_2
*I *250:A2 I *D sky130_fd_sc_hd__a211o_2
*I *262:A1 I *D sky130_fd_sc_hd__a211o_2
*I *258:A2 I *D sky130_fd_sc_hd__a2111o_2
*I *244:Y O *D sky130_fd_sc_hd__inv_2
*CAP
1 *254:B1 0
2 *250:A2 0
3 *262:A1 0
4 *258:A2 7.22445e-05
5 *244:Y 0.000169003
6 *20:57 0.000588527
7 *20:41 7.37903e-05
8 *20:33 0.000512952
9 *20:25 0.00104048
10 *20:15 0.00118984
11 *20:6 0.000241248
12 *258:A2 *24:46 5.3304e-05
13 *258:A2 *43:12 0.000224605
14 *258:A2 *55:101 9.00923e-05
15 *20:6 *244:A 9.91895e-05
16 *20:6 *43:12 5.3304e-05
17 *20:6 *55:101 4.05745e-05
18 *20:25 *248:B 0.000123336
19 *20:25 *24:8 0.000185434
20 *20:25 *24:12 0.00028294
21 *20:25 *24:46 0
22 *20:25 *26:10 1.76557e-05
23 *20:25 *40:30 9.84851e-05
24 *20:25 *43:8 0.000348456
25 *20:25 *45:21 0.00012822
26 *20:33 *23:8 0.000441369
27 *20:33 *24:31 7.84014e-05
28 *20:33 *40:30 6.25525e-05
29 *20:41 *23:8 2.93335e-05
30 *20:41 *35:12 2.93335e-05
31 *20:41 *52:8 4.68476e-05
32 *20:41 *57:10 9.5876e-06
33 *20:57 *244:A 1.05984e-05
34 *20:57 *254:B2 5.45541e-05
35 *20:57 *43:8 3.33082e-05
36 *20:57 *45:21 7.48218e-06
37 *20:57 *47:16 0.00080183
38 *20:57 *57:30 0
39 *274:A *20:25 5.50106e-05
40 *1:17 *20:41 0
41 *19:10 *20:57 0
*RES
1 *244:Y *20:6 26.48 
2 *20:6 *258:A2 25.5271 
3 *20:6 *20:15 15 
4 *20:15 *20:25 31.1779 
5 *20:25 *20:33 37.1671 
6 *20:33 *20:41 31.8229 
7 *20:41 *262:A1 23 
8 *20:25 *250:A2 23 
9 *20:15 *20:57 28.9407 
10 *20:57 *254:B1 23 
*END

*D_NET *21 0.00673159
*CONN
*I *259:C1 I *D sky130_fd_sc_hd__o211a_2
*I *255:C1 I *D sky130_fd_sc_hd__o221a_2
*I *263:C1 I *D sky130_fd_sc_hd__o221a_2
*I *251:C1 I *D sky130_fd_sc_hd__o221a_2
*I *245:Y O *D sky130_fd_sc_hd__inv_2
*CAP
1 *259:C1 0
2 *255:C1 7.46707e-05
3 *263:C1 0
4 *251:C1 0
5 *245:Y 9.40122e-05
6 *21:59 0.000584799
7 *21:24 0.000372344
8 *21:18 0.000936521
9 *21:10 0.000720368
10 *21:6 0.000760332
11 *255:C1 *27:14 0.000170057
12 *255:C1 *28:10 0.000124762
13 *21:10 *252:B 4.94442e-05
14 *21:10 *41:8 0.00013449
15 *21:10 *50:10 0
16 *21:18 *252:B 3.64337e-05
17 *21:18 *260:A 0.000246922
18 *21:18 *260:B 7.87243e-05
19 *21:18 *261:C 0.000138719
20 *21:18 *25:16 1.3523e-05
21 *21:18 *41:8 2.51382e-05
22 *21:18 *55:30 6.38342e-05
23 *21:18 *55:48 0.000323102
24 *21:18 *55:59 0.000189309
25 *21:18 *55:70 0.000271234
26 *21:24 *24:31 9.5876e-06
27 *21:24 *32:12 2.26406e-05
28 *21:24 *34:10 1.14452e-05
29 *21:24 *40:30 0.000501906
30 *21:59 *259:A2 4.59698e-05
31 *21:59 *32:26 2.84912e-05
32 *266:D *21:59 1.39317e-05
33 *12:10 *21:59 0.000441537
34 *18:14 *21:59 0.000247344
*RES
1 *245:Y *21:6 24.0979 
2 *21:6 *21:10 16.9057 
3 *21:10 *21:18 29.9143 
4 *21:18 *21:24 38.2443 
5 *21:24 *251:C1 23 
6 *21:18 *263:C1 23 
7 *21:10 *255:C1 40.6929 
8 *21:6 *21:59 42.3871 
9 *21:59 *259:C1 23 
*END

*D_NET *22 0.00263714
*CONN
*I *250:B1 I *D sky130_fd_sc_hd__a211o_2
*I *246:X O *D sky130_fd_sc_hd__and3_2
*CAP
1 *250:B1 0.000100346
2 *246:X 0.000499192
3 *22:12 0.000599539
4 *250:B1 *24:31 0.000204292
5 *22:12 *260:C 0.00018536
6 *22:12 *24:31 8.06461e-06
7 *22:12 *33:8 0.000548063
8 *22:12 *52:8 0
9 *22:12 *55:30 0.000216719
10 *281:A *250:B1 1.12863e-05
11 *1:17 *250:B1 3.86664e-05
12 *1:17 *22:12 0.000225616
*RES
1 *246:X *22:12 49.2168 
2 *22:12 *250:B1 40.7861 
*END

*D_NET *23 0.00175968
*CONN
*I *251:B2 I *D sky130_fd_sc_hd__o221a_2
*I *247:X O *D sky130_fd_sc_hd__and3b_2
*CAP
1 *251:B2 0
2 *247:X 0.000483674
3 *23:8 0.000483674
4 *23:8 *251:B1 6.39489e-06
5 *23:8 *262:A2 8.46337e-05
6 *23:8 *262:C1 0.000101883
7 *23:8 *24:31 4.15957e-05
8 *23:8 *35:12 3.05812e-05
9 *23:8 *45:8 5.65381e-05
10 *20:33 *23:8 0.000441369
11 *20:41 *23:8 2.93335e-05
*RES
1 *247:X *23:8 33.6471 
2 *23:8 *251:B2 23 
*END

*D_NET *24 0.00504783
*CONN
*I *258:B1 I *D sky130_fd_sc_hd__a2111o_2
*I *262:B1 I *D sky130_fd_sc_hd__a211o_2
*I *250:C1 I *D sky130_fd_sc_hd__a211o_2
*I *248:Y O *D sky130_fd_sc_hd__nor2_2
*CAP
1 *258:B1 0
2 *262:B1 0
3 *250:C1 7.83276e-05
4 *248:Y 9.16953e-05
5 *24:46 0.000401664
6 *24:31 0.000285591
7 *24:12 0.000496489
8 *24:8 0.00062593
9 *250:C1 *248:A 9.92345e-05
10 *250:C1 *40:30 2.41378e-06
11 *24:8 *248:A 3.53115e-05
12 *24:8 *248:B 1.32314e-05
13 *24:12 *248:A 0.000586767
14 *24:12 *40:30 2.46906e-05
15 *24:31 *262:A2 1.37232e-05
16 *24:31 *262:C1 0.000178227
17 *24:31 *33:8 1.46784e-05
18 *24:31 *35:12 0.000307963
19 *24:46 *25:22 0
20 *24:46 *36:19 1.94418e-05
21 *24:46 *37:23 0.000161121
22 *24:46 *43:12 3.88766e-05
23 *24:46 *43:22 2.93747e-05
24 *24:46 *45:21 0.00037402
25 *24:46 *46:8 0
26 *24:46 *55:101 0.000180218
27 *250:B1 *24:31 0.000204292
28 *258:A2 *24:46 5.3304e-05
29 *274:A *24:12 3.22879e-05
30 *281:A *24:31 1.13013e-05
31 *16:8 *24:46 8.16356e-05
32 *20:25 *24:8 0.000185434
33 *20:25 *24:12 0.00028294
34 *20:25 *24:46 0
35 *20:33 *24:31 7.84014e-05
36 *21:24 *24:31 9.5876e-06
37 *22:12 *24:31 8.06461e-06
38 *23:8 *24:31 4.15957e-05
*RES
1 *248:Y *24:8 26.0243 
2 *24:8 *24:12 7.18786 
3 *24:12 *250:C1 24.595 
4 *24:12 *24:31 37.9957 
5 *24:31 *262:B1 23 
6 *24:8 *24:46 40.44 
7 *24:46 *258:B1 23 
*END

*D_NET *25 0.00504265
*CONN
*I *259:A2 I *D sky130_fd_sc_hd__o211a_2
*I *255:A2 I *D sky130_fd_sc_hd__o221a_2
*I *263:A2 I *D sky130_fd_sc_hd__o221a_2
*I *251:A2 I *D sky130_fd_sc_hd__o221a_2
*I *249:X O *D sky130_fd_sc_hd__or2_2
*CAP
1 *259:A2 0.000362336
2 *255:A2 5.52987e-05
3 *263:A2 0
4 *251:A2 0
5 *249:X 4.53716e-05
6 *25:38 0.000757456
7 *25:22 0.00028894
8 *25:16 0.000689309
9 *25:8 0.000785561
10 *255:A2 *27:14 1.53748e-05
11 *255:A2 *28:10 1.94812e-05
12 *259:A2 *32:26 0.000102247
13 *25:16 *263:B1 2.62411e-05
14 *25:16 *34:10 0.000437423
15 *25:22 *263:B2 0.000386059
16 *25:22 *35:12 3.08146e-05
17 *25:22 *36:19 9.39955e-05
18 *25:22 *40:30 1.37349e-05
19 *25:22 *43:22 0.000194318
20 *25:22 *46:8 0.000166522
21 *25:38 *29:10 0.000140652
22 *25:38 *34:10 0.000111106
23 *12:10 *259:A2 0
24 *12:10 *25:38 0
25 *18:14 *259:A2 0.000260912
26 *21:18 *25:16 1.3523e-05
27 *21:59 *259:A2 4.59698e-05
28 *24:46 *25:22 0
*RES
1 *249:X *25:8 38.6214 
2 *25:8 *25:16 23.3271 
3 *25:16 *25:22 38.5964 
4 *25:22 *251:A2 23 
5 *25:16 *263:A2 23 
6 *25:8 *25:38 6.54571 
7 *25:38 *255:A2 39.1186 
8 *25:38 *259:A2 46.2443 
*END

*D_NET *26 0.00060761
*CONN
*I *251:B1 I *D sky130_fd_sc_hd__o221a_2
*I *250:X O *D sky130_fd_sc_hd__a211o_2
*CAP
1 *251:B1 6.69944e-06
2 *250:X 0.000110146
3 *26:10 0.000116845
4 *251:B1 *45:8 1.28818e-05
5 *26:10 *40:30 0.000172697
6 *26:10 *46:8 0.000164291
7 *20:25 *26:10 1.76557e-05
8 *23:8 *251:B1 6.39489e-06
*RES
1 *250:X *26:10 40.8793 
2 *26:10 *251:B1 38.1502 
*END

*D_NET *27 0.00106821
*CONN
*I *255:B1 I *D sky130_fd_sc_hd__o221a_2
*I *252:X O *D sky130_fd_sc_hd__and3_2
*CAP
1 *255:B1 0
2 *252:X 0.000318296
3 *27:14 0.000318296
4 *27:14 *252:B 0.000188927
5 *27:14 *253:A_N 2.93335e-05
6 *27:14 *28:10 2.79277e-05
7 *255:A2 *27:14 1.53748e-05
8 *255:C1 *27:14 0.000170057
*RES
1 *252:X *27:14 30.2241 
2 *27:14 *255:B1 23 
*END

*D_NET *28 0.00110075
*CONN
*I *254:A2_N I *D sky130_fd_sc_hd__o2bb2a_2
*I *253:Y O *D sky130_fd_sc_hd__nand2b_2
*CAP
1 *254:A2_N 4.50925e-05
2 *253:Y 0.00035904
3 *28:10 0.000404133
4 *254:A2_N *254:A1_N 1.57683e-05
5 *28:10 *29:10 5.22713e-05
6 *255:A2 *28:10 1.94812e-05
7 *255:C1 *28:10 0.000124762
8 *12:10 *28:10 5.22713e-05
9 *27:14 *28:10 2.79277e-05
*RES
1 *253:Y *28:10 43.9864 
2 *28:10 *254:A2_N 38.6214 
*END

*D_NET *29 0.000441251
*CONN
*I *255:B2 I *D sky130_fd_sc_hd__o221a_2
*I *254:X O *D sky130_fd_sc_hd__o2bb2a_2
*CAP
1 *255:B2 0
2 *254:X 0.000107956
3 *29:10 0.000107956
4 *29:10 *254:A1_N 3.24148e-05
5 *12:10 *29:10 0
6 *25:38 *29:10 0.000140652
7 *28:10 *29:10 5.22713e-05
*RES
1 *254:X *29:10 40.5271 
2 *29:10 *255:B2 38 
*END

*D_NET *30 0.0021335
*CONN
*I *258:C1 I *D sky130_fd_sc_hd__a2111o_2
*I *256:X O *D sky130_fd_sc_hd__and3_2
*CAP
1 *258:C1 0
2 *256:X 0.000368557
3 *30:6 0.000368557
4 *30:6 *257:A_N 9.04542e-05
5 *30:6 *258:D1 0.000114959
6 *30:6 *43:22 7.53384e-06
7 *30:6 *47:16 5.01633e-05
8 *30:6 *55:6 0.000444596
9 *30:6 *55:26 9.95989e-05
10 *30:6 *55:92 0.000137368
11 *30:6 *55:101 0.000397579
12 *14:9 *30:6 5.41288e-05
*RES
1 *256:X *30:6 34.5793 
2 *30:6 *258:C1 23 
*END

*D_NET *31 0.000514555
*CONN
*I *258:D1 I *D sky130_fd_sc_hd__a2111o_2
*I *257:X O *D sky130_fd_sc_hd__and3b_2
*CAP
1 *258:D1 8.89445e-05
2 *257:X 8.89445e-05
3 *258:D1 *47:16 0.000221707
4 *30:6 *258:D1 0.000114959
*RES
1 *257:X *258:D1 48.5271 
*END

*D_NET *32 0.00492758
*CONN
*I *259:B1 I *D sky130_fd_sc_hd__o211a_2
*I *258:X O *D sky130_fd_sc_hd__a2111o_2
*CAP
1 *259:B1 0
2 *258:X 8.23454e-05
3 *32:26 0.00226965
4 *32:12 0.00235199
5 *32:12 *40:30 2.26406e-05
6 *259:A2 *32:26 0.000102247
7 *18:14 *32:26 4.75766e-05
8 *21:24 *32:12 2.26406e-05
9 *21:59 *32:26 2.84912e-05
*RES
1 *258:X *32:12 46.42 
2 *32:12 *32:26 44.2994 
3 *32:26 *259:B1 23 
*END

*D_NET *33 0.00163228
*CONN
*I *262:C1 I *D sky130_fd_sc_hd__a211o_2
*I *260:X O *D sky130_fd_sc_hd__and3_2
*CAP
1 *262:C1 6.18176e-05
2 *260:X 0.000332898
3 *33:8 0.000394715
4 *22:12 *33:8 0.000548063
5 *23:8 *262:C1 0.000101883
6 *24:31 *262:C1 0.000178227
7 *24:31 *33:8 1.46784e-05
*RES
1 *260:X *33:8 45.54 
2 *33:8 *262:C1 40.0507 
*END

*D_NET *34 0.00166713
*CONN
*I *263:B1 I *D sky130_fd_sc_hd__o221a_2
*I *261:X O *D sky130_fd_sc_hd__and3b_2
*CAP
1 *263:B1 4.211e-05
2 *261:X 0.000358179
3 *34:10 0.000400289
4 *34:10 *254:A1_N 3.05299e-05
5 *34:10 *40:30 0.000249809
6 *21:24 *34:10 1.14452e-05
7 *25:16 *263:B1 2.62411e-05
8 *25:16 *34:10 0.000437423
9 *25:38 *34:10 0.000111106
*RES
1 *261:X *34:10 46.99 
2 *34:10 *263:B1 38.6162 
*END

*D_NET *35 0.00328393
*CONN
*I *263:B2 I *D sky130_fd_sc_hd__o221a_2
*I *262:X O *D sky130_fd_sc_hd__a211o_2
*CAP
1 *263:B2 0.000159023
2 *262:X 0.000688556
3 *35:12 0.000847578
4 *263:B2 *40:30 0.00027143
5 *35:12 *262:A2 9.58714e-05
6 *35:12 *40:30 0.000183572
7 *35:12 *45:8 0.000139067
8 *35:12 *46:8 0.000114083
9 *20:41 *35:12 2.93335e-05
10 *23:8 *35:12 3.05812e-05
11 *24:31 *35:12 0.000307963
12 *25:22 *263:B2 0.000386059
13 *25:22 *35:12 3.08146e-05
*RES
1 *262:X *35:12 49.2996 
2 *35:12 *263:B2 43.2511 
*END

*D_NET *36 0.00380236
*CONN
*I *270:A I *D sky130_fd_sc_hd__clkbuf_16
*I *269:A I *D sky130_fd_sc_hd__clkbuf_16
*I *268:X O *D sky130_fd_sc_hd__clkbuf_16
*CAP
1 *270:A 8.54787e-05
2 *269:A 0
3 *268:X 1.86694e-05
4 *36:31 0.000466829
5 *36:19 0.000556325
6 *36:13 0.00127816
7 *36:6 0.00035915
8 *270:A *41:45 7.59794e-05
9 *36:19 *37:23 0.000189909
10 *36:19 *40:30 0
11 *36:19 *43:22 9.39159e-05
12 *36:19 *45:21 2.28017e-05
13 *36:31 *265:CLK 0.000131878
14 *36:31 *38:10 6.67764e-05
15 *36:31 *45:21 2.79603e-05
16 *36:31 *47:10 0
17 *36:31 *48:8 0
18 *6:8 *36:19 5.44006e-05
19 *12:10 *36:19 2.05505e-05
20 *12:10 *36:31 0.000240141
21 *24:46 *36:19 1.94418e-05
22 *25:22 *36:19 9.39955e-05
*RES
1 *268:X *36:6 23.3832 
2 *36:6 *36:13 20.1475 
3 *36:13 *36:19 13.2364 
4 *36:19 *269:A 38 
5 *36:13 *36:31 10.3571 
6 *36:31 *270:A 39.5743 
*END

*D_NET *37 0.00204288
*CONN
*I *267:CLK I *D sky130_fd_sc_hd__dfxtp_2
*I *264:CLK I *D sky130_fd_sc_hd__dfxtp_2
*I *269:X O *D sky130_fd_sc_hd__clkbuf_16
*CAP
1 *267:CLK 0
2 *264:CLK 6.66713e-05
3 *269:X 0.00032242
4 *37:23 0.000196005
5 *37:10 0.000585097
6 *264:CLK *57:24 7.44257e-05
7 *37:10 *57:24 0.000244904
8 *37:23 *45:21 2.34898e-05
9 *6:8 *37:23 0.00017884
10 *24:46 *37:23 0.000161121
11 *36:19 *37:23 0.000189909
*RES
1 *269:X *37:10 29.5043 
2 *37:10 *264:CLK 24.5743 
3 *37:10 *37:23 35.4271 
4 *37:23 *267:CLK 23 
*END

*D_NET *38 0.00140727
*CONN
*I *266:CLK I *D sky130_fd_sc_hd__dfxtp_2
*I *265:CLK I *D sky130_fd_sc_hd__dfxtp_2
*I *270:X O *D sky130_fd_sc_hd__clkbuf_16
*CAP
1 *266:CLK 0
2 *265:CLK 0.00012301
3 *270:X 0.000406306
4 *38:10 0.000529316
5 *265:CLK *255:A1 5.67058e-05
6 *265:CLK *47:10 5.61414e-05
7 *38:10 *41:45 3.71369e-05
8 *36:31 *265:CLK 0.000131878
9 *36:31 *38:10 6.67764e-05
*RES
1 *270:X *38:10 44.3386 
2 *38:10 *265:CLK 41.9357 
3 *38:10 *266:CLK 38 
*END

*D_NET *39 0.00195318
*CONN
*I *246:C I *D sky130_fd_sc_hd__and3_2
*I *278:X O *D sky130_fd_sc_hd__clkdlybuf4s25_1
*CAP
1 *246:C 0.000411795
2 *278:X 0.000156137
3 *39:8 0.000567933
4 *246:C *260:A 1.56665e-05
5 *246:C *260:C 5.56356e-05
6 *246:C *54:34 0.000401106
7 *246:C *54:87 4.2573e-05
8 *39:8 *54:19 0.000199701
9 *39:8 *54:34 0.000102629
*RES
1 *278:X *39:8 42.0186 
2 *39:8 *246:C 44.3386 
*END

*D_NET *40 0.00575729
*CONN
*I *275:A I *D sky130_fd_sc_hd__dlygate4sd3_1
*I *286:A I *D sky130_fd_sc_hd__clkdlybuf4s25_1
*I *250:A1 I *D sky130_fd_sc_hd__a211o_2
*I *265:Q O *D sky130_fd_sc_hd__dfxtp_2
*CAP
1 *275:A 0.000278499
2 *286:A 0
3 *250:A1 0
4 *265:Q 0
5 *40:30 0.00070039
6 *40:14 0.00170504
7 *40:6 0.00128315
8 *40:14 *57:30 0
9 *40:30 *46:8 1.88972e-05
10 *250:C1 *40:30 2.41378e-06
11 *263:B2 *40:30 0.00027143
12 *5:8 *40:14 0.000167384
13 *16:8 *40:30 0
14 *17:10 *40:14 0
15 *20:25 *40:30 9.84851e-05
16 *20:33 *40:30 6.25525e-05
17 *21:24 *40:30 0.000501906
18 *24:12 *40:30 2.46906e-05
19 *25:22 *40:30 1.37349e-05
20 *26:10 *40:30 0.000172697
21 *32:12 *40:30 2.26406e-05
22 *34:10 *40:30 0.000249809
23 *35:12 *40:30 0.000183572
24 *36:19 *40:30 0
*RES
1 *265:Q *40:6 38 
2 *40:6 *40:14 33.5393 
3 *40:14 *40:30 47.69 
4 *40:30 *250:A1 23 
5 *40:14 *286:A 23 
6 *40:6 *275:A 43.2407 
*END

*D_NET *41 0.00282773
*CONN
*I *287:A I *D sky130_fd_sc_hd__clkdlybuf4s25_1
*I *277:A I *D sky130_fd_sc_hd__dlygate4sd3_1
*I *253:B I *D sky130_fd_sc_hd__nand2b_2
*I *261:C I *D sky130_fd_sc_hd__and3b_2
*I *266:Q O *D sky130_fd_sc_hd__dfxtp_2
*CAP
1 *287:A 0
2 *277:A 0
3 *253:B 0
4 *261:C 0.000163324
5 *266:Q 0
6 *41:45 0.000364497
7 *41:32 0.000779985
8 *41:8 0.000346198
9 *41:6 0.000598362
10 *261:C *254:A1_N 5.93111e-05
11 *41:8 *50:10 0
12 *41:8 *56:10 3.27399e-05
13 *41:32 *56:10 7.18464e-05
14 *270:A *41:45 7.59794e-05
15 *12:10 *41:45 0
16 *21:10 *41:8 0.00013449
17 *21:18 *261:C 0.000138719
18 *21:18 *41:8 2.51382e-05
19 *38:10 *41:45 3.71369e-05
*RES
1 *266:Q *41:6 38 
2 *41:6 *41:8 4.01857 
3 *41:8 *261:C 41.0502 
4 *41:8 *253:B 38 
5 *41:6 *41:32 21.6907 
6 *41:32 *277:A 23 
7 *41:32 *41:45 36.9186 
8 *41:45 *287:A 23 
*END

*D_NET *42 0.00174001
*CONN
*I *271:A I *D sky130_fd_sc_hd__dlygate4sd3_1
*I *288:A I *D sky130_fd_sc_hd__clkdlybuf4s25_1
*I *267:Q O *D sky130_fd_sc_hd__dfxtp_2
*CAP
1 *271:A 6.80978e-05
2 *288:A 0.000272888
3 *267:Q 0.000326165
4 *42:8 0.000667152
5 *288:A *248:B 0
6 *42:8 *248:B 0
7 *42:8 *57:30 0
8 *8:8 *288:A 0.000126936
9 *8:8 *42:8 0.000278773
*RES
1 *267:Q *42:8 45.54 
2 *42:8 *288:A 43.8414 
3 *42:8 *271:A 39.0979 
*END

*D_NET *43 0.00260875
*CONN
*I *258:A1 I *D sky130_fd_sc_hd__a2111o_2
*I *263:A1 I *D sky130_fd_sc_hd__o221a_2
*I *271:X O *D sky130_fd_sc_hd__dlygate4sd3_1
*CAP
1 *258:A1 0
2 *263:A1 0
3 *271:X 0.000144944
4 *43:22 0.000150149
5 *43:12 0.000273653
6 *43:8 0.000268449
7 *43:8 *244:A 7.56039e-05
8 *43:8 *248:B 0.000296017
9 *43:12 *47:16 0.000267178
10 *43:22 *47:16 9.67842e-05
11 *43:22 *55:101 1.22822e-05
12 *258:A2 *43:12 0.000224605
13 *20:6 *43:12 5.3304e-05
14 *20:25 *43:8 0.000348456
15 *20:57 *43:8 3.33082e-05
16 *24:46 *43:12 3.88766e-05
17 *24:46 *43:22 2.93747e-05
18 *25:22 *43:22 0.000194318
19 *30:6 *43:22 7.53384e-06
20 *36:19 *43:22 9.39159e-05
*RES
1 *271:X *43:8 43.075 
2 *43:8 *43:12 18.9564 
3 *43:12 *43:22 34.3293 
4 *43:22 *263:A1 23 
5 *43:12 *258:A1 23 
*END

*D_NET *44 0.000360877
*CONN
*I *267:D I *D sky130_fd_sc_hd__dfxtp_2
*I *272:X O *D sky130_fd_sc_hd__dlygate4sd3_1
*CAP
1 *267:D 1.11712e-05
2 *272:X 4.90164e-05
3 *44:8 6.01877e-05
4 *44:8 *45:21 0.000113153
5 *44:8 *47:16 0.000110913
6 *19:10 *267:D 1.64354e-05
*RES
1 *272:X *44:8 39.5536 
2 *44:8 *267:D 38.1916 
*END

*D_NET *45 0.00367274
*CONN
*I *254:B2 I *D sky130_fd_sc_hd__o2bb2a_2
*I *251:A1 I *D sky130_fd_sc_hd__o221a_2
*I *273:X O *D sky130_fd_sc_hd__dlygate4sd3_1
*CAP
1 *254:B2 0.000118972
2 *251:A1 0
3 *273:X 0.000200035
4 *45:21 0.000832977
5 *45:8 0.00091404
6 *45:21 *47:16 0.000309765
7 *251:B1 *45:8 1.28818e-05
8 *6:8 *45:21 0.000336779
9 *20:25 *45:21 0.00012822
10 *20:57 *254:B2 5.45541e-05
11 *20:57 *45:21 7.48218e-06
12 *23:8 *45:8 5.65381e-05
13 *24:46 *45:21 0.00037402
14 *35:12 *45:8 0.000139067
15 *36:19 *45:21 2.28017e-05
16 *36:31 *45:21 2.79603e-05
17 *37:23 *45:21 2.34898e-05
18 *44:8 *45:21 0.000113153
*RES
1 *273:X *45:8 26.9771 
2 *45:8 *251:A1 23 
3 *45:8 *45:21 48.5186 
4 *45:21 *254:B2 24.5743 
*END

*D_NET *46 0.000875454
*CONN
*I *264:D I *D sky130_fd_sc_hd__dfxtp_2
*I *274:X O *D sky130_fd_sc_hd__dlygate4sd3_1
*CAP
1 *264:D 1.5148e-05
2 *274:X 0.000189059
3 *46:8 0.000204208
4 *264:D *57:24 3.24476e-06
5 *16:8 *46:8 0
6 *24:46 *46:8 0
7 *25:22 *46:8 0.000166522
8 *26:10 *46:8 0.000164291
9 *35:12 *46:8 0.000114083
10 *40:30 *46:8 1.88972e-05
*RES
1 *274:X *46:8 42.3707 
2 *46:8 *264:D 38.1916 
*END

*D_NET *47 0.00491913
*CONN
*I *255:A1 I *D sky130_fd_sc_hd__o221a_2
*I *257:C I *D sky130_fd_sc_hd__and3b_2
*I *275:X O *D sky130_fd_sc_hd__dlygate4sd3_1
*CAP
1 *255:A1 0.000222288
2 *257:C 0
3 *275:X 0.000185955
4 *47:16 0.000850331
5 *47:10 0.00125857
6 *255:A1 *265:D 1.64354e-05
7 *47:16 *48:8 0.000110606
8 *258:D1 *47:16 0.000221707
9 *265:CLK *255:A1 5.67058e-05
10 *265:CLK *47:10 5.61414e-05
11 *17:10 *255:A1 0.00030375
12 *17:10 *47:16 0
13 *20:57 *47:16 0.00080183
14 *30:6 *47:16 5.01633e-05
15 *36:31 *47:10 0
16 *43:12 *47:16 0.000267178
17 *43:22 *47:16 9.67842e-05
18 *44:8 *47:16 0.000110913
19 *45:21 *47:16 0.000309765
*RES
1 *275:X *47:10 41.2314 
2 *47:10 *47:16 36.1804 
3 *47:16 *257:C 23 
4 *47:10 *255:A1 44.0693 
*END

*D_NET *48 0.000314942
*CONN
*I *265:D I *D sky130_fd_sc_hd__dfxtp_2
*I *276:X O *D sky130_fd_sc_hd__dlygate4sd3_1
*CAP
1 *265:D 7.17495e-06
2 *276:X 7.85575e-05
3 *48:8 8.57325e-05
4 *255:A1 *265:D 1.64354e-05
5 *17:10 *265:D 1.64354e-05
6 *36:31 *48:8 0
7 *47:16 *48:8 0.000110606
*RES
1 *276:X *48:8 39.5536 
2 *48:8 *265:D 38.1916 
*END

*D_NET *49 0.000477479
*CONN
*I *259:A1 I *D sky130_fd_sc_hd__o211a_2
*I *277:X O *D sky130_fd_sc_hd__dlygate4sd3_1
*CAP
1 *259:A1 6.23108e-05
2 *277:X 0.00014162
3 *49:8 0.000203931
4 *18:14 *259:A1 6.96176e-05
*RES
1 *277:X *49:8 40.2579 
2 *49:8 *259:A1 39.3982 
*END

*D_NET *50 0.00116424
*CONN
*I *252:C I *D sky130_fd_sc_hd__and3_2
*I *279:X O *D sky130_fd_sc_hd__clkdlybuf4s25_1
*CAP
1 *252:C 0
2 *279:X 0.000575996
3 *50:10 0.000575996
4 *50:10 *252:A 6.07611e-06
5 *50:10 *252:B 0
6 *50:10 *55:70 0
7 *50:10 *56:10 0
8 *2:9 *50:10 6.17437e-06
9 *21:10 *50:10 0
10 *41:8 *50:10 0
*RES
1 *279:X *50:10 46.9071 
2 *50:10 *252:C 38 
*END

*D_NET *51 0.00182277
*CONN
*I *256:C I *D sky130_fd_sc_hd__and3_2
*I *280:X O *D sky130_fd_sc_hd__clkdlybuf4s25_1
*CAP
1 *256:C 0
2 *280:X 0.000599156
3 *51:10 0.000599156
4 *51:10 *257:A_N 0
5 *51:10 *52:8 0
6 *51:10 *53:12 0.000182826
7 *51:10 *54:19 0.000138762
8 *51:10 *54:34 2.76611e-06
9 *51:10 *55:19 0.000300098
10 *14:9 *51:10 0
*RES
1 *280:X *51:10 49.2893 
2 *51:10 *256:C 38 
*END

*D_NET *52 0.00288409
*CONN
*I *260:C I *D sky130_fd_sc_hd__and3_2
*I *281:X O *D sky130_fd_sc_hd__clkdlybuf4s25_1
*CAP
1 *260:C 0.000159203
2 *281:X 0.000534568
3 *52:8 0.000693771
4 *260:C *260:A 0.000451969
5 *52:8 *257:A_N 6.4393e-05
6 *52:8 *54:49 4.6318e-06
7 *52:8 *55:30 0
8 *52:8 *57:10 0
9 *246:C *260:C 5.56356e-05
10 *1:17 *52:8 0
11 *3:17 *52:8 0
12 *14:9 *52:8 0.000687708
13 *20:41 *52:8 4.68476e-05
14 *22:12 *260:C 0.00018536
15 *22:12 *52:8 0
16 *51:10 *52:8 0
*RES
1 *281:X *52:8 49.4136 
2 *52:8 *260:C 42.9093 
*END

*D_NET *53 0.00145484
*CONN
*I *262:A2 I *D sky130_fd_sc_hd__a211o_2
*I *247:C I *D sky130_fd_sc_hd__and3b_2
*I *282:X O *D sky130_fd_sc_hd__clkdlybuf4s25_1
*CAP
1 *262:A2 0.000175748
2 *247:C 0
3 *282:X 6.02169e-05
4 *53:12 0.000293989
5 *53:8 0.000178459
6 *53:8 *54:10 0.000171906
7 *53:8 *54:19 2.55642e-05
8 *3:17 *53:8 0.000171906
9 *23:8 *262:A2 8.46337e-05
10 *24:31 *262:A2 1.37232e-05
11 *35:12 *262:A2 9.58714e-05
12 *51:10 *53:12 0.000182826
*RES
1 *282:X *53:8 40.61 
2 *53:8 *53:12 17.5737 
3 *53:12 *247:C 23 
4 *53:12 *262:A2 26.9305 
*END

*D_NET *54 0.0119013
*CONN
*I *248:A I *D sky130_fd_sc_hd__nor2_2
*I *260:A I *D sky130_fd_sc_hd__and3_2
*I *246:A I *D sky130_fd_sc_hd__and3_2
*I *252:A I *D sky130_fd_sc_hd__and3_2
*I *254:A1_N I *D sky130_fd_sc_hd__o2bb2a_2
*I *261:A_N I *D sky130_fd_sc_hd__and3b_2
*I *249:A I *D sky130_fd_sc_hd__or2_2
*I *257:A_N I *D sky130_fd_sc_hd__and3b_2
*I *256:A I *D sky130_fd_sc_hd__and3_2
*I *247:A_N I *D sky130_fd_sc_hd__and3b_2
*I *283:X O *D sky130_fd_sc_hd__clkdlybuf4s25_1
*CAP
1 *248:A 0.00114403
2 *260:A 0.000201822
3 *246:A 0
4 *252:A 0.000121463
5 *254:A1_N 0.000232247
6 *261:A_N 0
7 *249:A 0.000324797
8 *257:A_N 0.000254412
9 *256:A 4.49845e-05
10 *247:A_N 0
11 *283:X 0.000315164
12 *54:87 0.000223657
13 *54:64 0.000495334
14 *54:60 0.000557161
15 *54:49 0.00082067
16 *54:36 0.000577673
17 *54:34 0.00024118
18 *54:19 0.000483979
19 *54:10 0.00041
20 *54:6 0.00164955
21 *249:A *249:B 9.65021e-05
22 *252:A *55:70 0
23 *254:A1_N *261:B 5.864e-05
24 *260:A *246:B 8.19612e-05
25 *260:A *260:B 9.78729e-06
26 *54:10 *55:19 0
27 *54:19 *55:19 0
28 *54:49 *55:30 0
29 *54:49 *55:48 0
30 *54:64 *261:B 3.7122e-06
31 *246:C *260:A 1.56665e-05
32 *246:C *54:34 0.000401106
33 *246:C *54:87 4.2573e-05
34 *250:C1 *248:A 9.92345e-05
35 *254:A2_N *254:A1_N 1.57683e-05
36 *260:C *260:A 0.000451969
37 *261:C *254:A1_N 5.93111e-05
38 *283:A *248:A 0.000357631
39 *283:A *54:6 9.84794e-05
40 *3:17 *54:10 1.22906e-05
41 *9:13 *248:A 0.000204748
42 *14:9 *257:A_N 5.50049e-05
43 *14:9 *54:10 0
44 *21:18 *260:A 0.000246922
45 *24:8 *248:A 3.53115e-05
46 *24:12 *248:A 0.000586767
47 *29:10 *254:A1_N 3.24148e-05
48 *30:6 *257:A_N 9.04542e-05
49 *34:10 *254:A1_N 3.05299e-05
50 *39:8 *54:19 0.000199701
51 *39:8 *54:34 0.000102629
52 *50:10 *252:A 6.07611e-06
53 *51:10 *257:A_N 0
54 *51:10 *54:19 0.000138762
55 *51:10 *54:34 2.76611e-06
56 *52:8 *257:A_N 6.4393e-05
57 *52:8 *54:49 4.6318e-06
58 *53:8 *54:10 0.000171906
59 *53:8 *54:19 2.55642e-05
*RES
1 *283:X *54:6 27.4329 
2 *54:6 *54:10 19.0186 
3 *54:10 *247:A_N 38 
4 *54:10 *54:19 6.13143 
5 *54:19 *256:A 38.6214 
6 *54:19 *54:34 21.3386 
7 *54:34 *54:36 15 
8 *54:36 *257:A_N 43.3857 
9 *54:36 *54:49 6.13143 
10 *54:49 *249:A 43.8621 
11 *54:49 *54:60 3.31429 
12 *54:60 *54:64 18.9564 
13 *54:64 *261:A_N 23 
14 *54:64 *254:A1_N 28.0646 
15 *54:60 *252:A 40.2579 
16 *54:34 *54:87 0.621429 
17 *54:87 *246:A 23 
18 *54:87 *260:A 30.3329 
19 *54:6 *248:A 41.1457 
*END

*D_NET *55 0.0112305
*CONN
*I *244:A I *D sky130_fd_sc_hd__inv_2
*I *248:B I *D sky130_fd_sc_hd__nor2_2
*I *257:B I *D sky130_fd_sc_hd__and3b_2
*I *252:B I *D sky130_fd_sc_hd__and3_2
*I *253:A_N I *D sky130_fd_sc_hd__nand2b_2
*I *261:B I *D sky130_fd_sc_hd__and3b_2
*I *249:B I *D sky130_fd_sc_hd__or2_2
*I *260:B I *D sky130_fd_sc_hd__and3_2
*I *246:B I *D sky130_fd_sc_hd__and3_2
*I *247:B I *D sky130_fd_sc_hd__and3b_2
*I *256:B I *D sky130_fd_sc_hd__and3_2
*I *284:X O *D sky130_fd_sc_hd__clkdlybuf4s25_1
*CAP
1 *244:A 0.000202884
2 *248:B 0.000386808
3 *257:B 0
4 *252:B 0.00025094
5 *253:A_N 3.30345e-05
6 *261:B 0.000153711
7 *249:B 6.4894e-05
8 *260:B 0.000142347
9 *246:B 0.000173384
10 *247:B 0
11 *256:B 6.27375e-05
12 *284:X 0
13 *55:101 0.00127206
14 *55:92 0.000791953
15 *55:70 0.00042517
16 *55:59 0.000405492
17 *55:48 0.000341488
18 *55:32 0.00031573
19 *55:30 0.000385838
20 *55:26 0.000396829
21 *55:19 0.00025141
22 *55:6 0.000670947
23 *55:4 0.000424215
24 *244:A *57:30 2.36885e-05
25 *248:B *57:30 2.29192e-05
26 *249:A *249:B 9.65021e-05
27 *252:A *55:70 0
28 *254:A1_N *261:B 5.864e-05
29 *258:A2 *55:101 9.00923e-05
30 *260:A *246:B 8.19612e-05
31 *260:A *260:B 9.78729e-06
32 *288:A *248:B 0
33 *14:9 *55:19 0
34 *19:10 *244:A 1.40087e-05
35 *20:6 *244:A 9.91895e-05
36 *20:6 *55:101 4.05745e-05
37 *20:25 *248:B 0.000123336
38 *20:57 *244:A 1.05984e-05
39 *21:10 *252:B 4.94442e-05
40 *21:18 *252:B 3.64337e-05
41 *21:18 *260:B 7.87243e-05
42 *21:18 *55:30 6.38342e-05
43 *21:18 *55:48 0.000323102
44 *21:18 *55:59 0.000189309
45 *21:18 *55:70 0.000271234
46 *22:12 *55:30 0.000216719
47 *24:8 *248:B 1.32314e-05
48 *24:46 *55:101 0.000180218
49 *27:14 *252:B 0.000188927
50 *27:14 *253:A_N 2.93335e-05
51 *30:6 *55:6 0.000444596
52 *30:6 *55:26 9.95989e-05
53 *30:6 *55:92 0.000137368
54 *30:6 *55:101 0.000397579
55 *42:8 *248:B 0
56 *43:8 *244:A 7.56039e-05
57 *43:8 *248:B 0.000296017
58 *43:22 *55:101 1.22822e-05
59 *50:10 *252:B 0
60 *50:10 *55:70 0
61 *51:10 *55:19 0.000300098
62 *52:8 *55:30 0
63 *54:10 *55:19 0
64 *54:19 *55:19 0
65 *54:49 *55:30 0
66 *54:49 *55:48 0
67 *54:64 *261:B 3.7122e-06
*RES
1 *284:X *55:4 23 
2 *55:4 *55:6 5.38571 
3 *55:6 *256:B 23.6214 
4 *55:6 *55:19 35.7793 
5 *55:19 *247:B 23 
6 *55:4 *55:26 1.09786 
7 *55:26 *55:30 19.7229 
8 *55:30 *55:32 15 
9 *55:32 *246:B 25.5271 
10 *55:32 *260:B 25.0507 
11 *55:30 *55:48 4.37071 
12 *55:48 *249:B 39.0979 
13 *55:48 *55:59 2.61 
14 *55:59 *261:B 40.0507 
15 *55:59 *55:70 3.66643 
16 *55:70 *253:A_N 38.6214 
17 *55:70 *252:B 42.205 
18 *55:26 *55:92 1.57429 
19 *55:92 *257:B 23 
20 *55:92 *55:101 24.6736 
21 *55:101 *248:B 46.5136 
22 *55:101 *244:A 42.1014 
*END

*D_NET *56 0.000825648
*CONN
*I *245:A I *D sky130_fd_sc_hd__inv_2
*I *285:X O *D sky130_fd_sc_hd__clkdlybuf4s25_1
*CAP
1 *245:A 0
2 *285:X 0.000360531
3 *56:10 0.000360531
4 *2:9 *56:10 0
5 *41:8 *56:10 3.27399e-05
6 *41:32 *56:10 7.18464e-05
7 *50:10 *56:10 0
*RES
1 *285:X *56:10 44.2971 
2 *56:10 *245:A 38 
*END

*D_NET *57 0.00416408
*CONN
*I *289:A I *D sky130_fd_sc_hd__clkdlybuf4s25_1
*I *273:A I *D sky130_fd_sc_hd__dlygate4sd3_1
*I *264:Q O *D sky130_fd_sc_hd__dfxtp_2
*CAP
1 *289:A 0
2 *273:A 0
3 *264:Q 0.00128014
4 *57:30 0.000434244
5 *57:24 0.001556
6 *57:10 0.000158381
7 *244:A *57:30 2.36885e-05
8 *248:B *57:30 2.29192e-05
9 *264:CLK *57:24 7.44257e-05
10 *264:D *57:24 3.24476e-06
11 *1:17 *57:10 0.000187288
12 *1:17 *57:24 3.42398e-05
13 *19:10 *57:30 0.000135008
14 *20:41 *57:10 9.5876e-06
15 *20:57 *57:30 0
16 *37:10 *57:24 0.000244904
17 *40:14 *57:30 0
18 *42:8 *57:30 0
19 *52:8 *57:10 0
*RES
1 *264:Q *57:10 40.8793 
2 *57:10 *273:A 38 
3 *264:Q *57:24 36.485 
4 *57:24 *57:30 37.8921 
5 *57:30 *289:A 23 
*END
