*SPEF "ieee 1481-1999"
*DESIGN "u_s_r"
*DATE "20:48:27 Wednesday June 03, 2026"
*VENDOR "The OpenROAD Project"
*PROGRAM "OpenROAD"
*VERSION "dcf36133a369abc8f3c5e5738cd4d82e4903c0e0"
*DESIGN_FLOW "NAME_SCOPE LOCAL" "PIN_CAP NONE"
*DIVIDER /
*DELIMITER :
*BUS_DELIMITER []
*T_UNIT 1 NS
*C_UNIT 1 PF
*R_UNIT 1 OHM
*L_UNIT 1 HENRY

*NAME_MAP
*1 D[0]
*2 D[1]
*3 D[2]
*4 D[3]
*5 Q[0]
*6 Q[1]
*7 Q[2]
*8 Q[3]
*9 S_in
*12 clk
*13 mode[0]
*14 mode[1]
*15 rst
*16 _00_
*17 _01_
*18 _02_
*19 _03_
*20 _04_
*21 _05_
*22 _06_
*23 _07_
*24 _08_
*25 _09_
*26 _10_
*27 _11_
*28 _12_
*29 _13_
*30 _14_
*31 _15_
*32 _16_
*33 _17_
*34 _18_
*35 _19_
*36 clknet_0_clk
*37 clknet_1_0__leaf_clk
*38 clknet_1_1__leaf_clk
*39 net1
*40 net10
*41 net11
*42 net12
*43 net13
*44 net14
*45 net15
*46 net16
*47 net17
*48 net18
*49 net19
*50 net2
*51 net3
*52 net4
*53 net5
*54 net6
*55 net7
*56 net8
*57 net9
*58 FILLER_0_100
*59 FILLER_0_103
*60 FILLER_0_106
*61 FILLER_0_109
*62 FILLER_0_113
*63 FILLER_0_116
*64 FILLER_0_119
*65 FILLER_0_12
*66 FILLER_0_122
*67 FILLER_0_125
*68 FILLER_0_15
*69 FILLER_0_18
*70 FILLER_0_21
*71 FILLER_0_24
*72 FILLER_0_27
*73 FILLER_0_29
*74 FILLER_0_3
*75 FILLER_0_32
*76 FILLER_0_35
*77 FILLER_0_38
*78 FILLER_0_41
*79 FILLER_0_44
*80 FILLER_0_54
*81 FILLER_0_6
*82 FILLER_0_65
*83 FILLER_0_68
*84 FILLER_0_71
*85 FILLER_0_80
*86 FILLER_0_83
*87 FILLER_0_85
*88 FILLER_0_88
*89 FILLER_0_9
*90 FILLER_0_91
*91 FILLER_0_94
*92 FILLER_0_97
*93 FILLER_10_101
*94 FILLER_10_104
*95 FILLER_10_107
*96 FILLER_10_110
*97 FILLER_10_113
*98 FILLER_10_116
*99 FILLER_10_119
*100 FILLER_10_12
*101 FILLER_10_122
*102 FILLER_10_125
*103 FILLER_10_15
*104 FILLER_10_18
*105 FILLER_10_21
*106 FILLER_10_24
*107 FILLER_10_27
*108 FILLER_10_29
*109 FILLER_10_3
*110 FILLER_10_32
*111 FILLER_10_35
*112 FILLER_10_38
*113 FILLER_10_41
*114 FILLER_10_44
*115 FILLER_10_47
*116 FILLER_10_50
*117 FILLER_10_53
*118 FILLER_10_56
*119 FILLER_10_59
*120 FILLER_10_6
*121 FILLER_10_62
*122 FILLER_10_65
*123 FILLER_10_68
*124 FILLER_10_71
*125 FILLER_10_74
*126 FILLER_10_77
*127 FILLER_10_80
*128 FILLER_10_83
*129 FILLER_10_9
*130 FILLER_11_106
*131 FILLER_11_109
*132 FILLER_11_113
*133 FILLER_11_116
*134 FILLER_11_119
*135 FILLER_11_12
*136 FILLER_11_122
*137 FILLER_11_125
*138 FILLER_11_15
*139 FILLER_11_18
*140 FILLER_11_21
*141 FILLER_11_24
*142 FILLER_11_27
*143 FILLER_11_3
*144 FILLER_11_30
*145 FILLER_11_33
*146 FILLER_11_51
*147 FILLER_11_54
*148 FILLER_11_57
*149 FILLER_11_6
*150 FILLER_11_60
*151 FILLER_11_63
*152 FILLER_11_73
*153 FILLER_11_76
*154 FILLER_11_79
*155 FILLER_11_88
*156 FILLER_11_9
*157 FILLER_12_106
*158 FILLER_12_109
*159 FILLER_12_112
*160 FILLER_12_115
*161 FILLER_12_118
*162 FILLER_12_121
*163 FILLER_12_124
*164 FILLER_12_17
*165 FILLER_12_20
*166 FILLER_12_23
*167 FILLER_12_26
*168 FILLER_12_29
*169 FILLER_12_32
*170 FILLER_12_35
*171 FILLER_12_46
*172 FILLER_12_49
*173 FILLER_12_52
*174 FILLER_12_78
*175 FILLER_12_81
*176 FILLER_12_85
*177 FILLER_12_88
*178 FILLER_13_107
*179 FILLER_13_11
*180 FILLER_13_110
*181 FILLER_13_113
*182 FILLER_13_116
*183 FILLER_13_14
*184 FILLER_13_17
*185 FILLER_13_20
*186 FILLER_13_23
*187 FILLER_13_26
*188 FILLER_13_29
*189 FILLER_13_32
*190 FILLER_13_35
*191 FILLER_13_38
*192 FILLER_13_41
*193 FILLER_13_44
*194 FILLER_13_47
*195 FILLER_13_50
*196 FILLER_13_53
*197 FILLER_13_57
*198 FILLER_13_60
*199 FILLER_13_69
*200 FILLER_13_72
*201 FILLER_13_75
*202 FILLER_13_78
*203 FILLER_13_81
*204 FILLER_13_84
*205 FILLER_14_102
*206 FILLER_14_105
*207 FILLER_14_108
*208 FILLER_14_11
*209 FILLER_14_111
*210 FILLER_14_114
*211 FILLER_14_117
*212 FILLER_14_120
*213 FILLER_14_123
*214 FILLER_14_126
*215 FILLER_14_14
*216 FILLER_14_17
*217 FILLER_14_20
*218 FILLER_14_23
*219 FILLER_14_26
*220 FILLER_14_29
*221 FILLER_14_32
*222 FILLER_14_35
*223 FILLER_14_38
*224 FILLER_14_41
*225 FILLER_14_44
*226 FILLER_14_47
*227 FILLER_14_50
*228 FILLER_14_53
*229 FILLER_14_56
*230 FILLER_14_59
*231 FILLER_14_62
*232 FILLER_14_65
*233 FILLER_14_68
*234 FILLER_14_71
*235 FILLER_14_74
*236 FILLER_14_77
*237 FILLER_14_80
*238 FILLER_14_83
*239 FILLER_14_93
*240 FILLER_14_96
*241 FILLER_14_99
*242 FILLER_15_102
*243 FILLER_15_105
*244 FILLER_15_108
*245 FILLER_15_11
*246 FILLER_15_111
*247 FILLER_15_113
*248 FILLER_15_116
*249 FILLER_15_119
*250 FILLER_15_122
*251 FILLER_15_125
*252 FILLER_15_14
*253 FILLER_15_17
*254 FILLER_15_20
*255 FILLER_15_23
*256 FILLER_15_26
*257 FILLER_15_29
*258 FILLER_15_32
*259 FILLER_15_35
*260 FILLER_15_38
*261 FILLER_15_41
*262 FILLER_15_44
*263 FILLER_15_47
*264 FILLER_15_50
*265 FILLER_15_53
*266 FILLER_15_57
*267 FILLER_15_60
*268 FILLER_15_63
*269 FILLER_15_66
*270 FILLER_15_69
*271 FILLER_15_72
*272 FILLER_15_75
*273 FILLER_15_78
*274 FILLER_15_81
*275 FILLER_15_84
*276 FILLER_15_87
*277 FILLER_15_90
*278 FILLER_15_93
*279 FILLER_15_96
*280 FILLER_15_99
*281 FILLER_16_100
*282 FILLER_16_103
*283 FILLER_16_106
*284 FILLER_16_109
*285 FILLER_16_112
*286 FILLER_16_115
*287 FILLER_16_118
*288 FILLER_16_12
*289 FILLER_16_121
*290 FILLER_16_124
*291 FILLER_16_15
*292 FILLER_16_18
*293 FILLER_16_21
*294 FILLER_16_24
*295 FILLER_16_27
*296 FILLER_16_29
*297 FILLER_16_3
*298 FILLER_16_32
*299 FILLER_16_35
*300 FILLER_16_38
*301 FILLER_16_41
*302 FILLER_16_44
*303 FILLER_16_47
*304 FILLER_16_50
*305 FILLER_16_53
*306 FILLER_16_56
*307 FILLER_16_59
*308 FILLER_16_6
*309 FILLER_16_62
*310 FILLER_16_65
*311 FILLER_16_68
*312 FILLER_16_71
*313 FILLER_16_74
*314 FILLER_16_77
*315 FILLER_16_80
*316 FILLER_16_83
*317 FILLER_16_85
*318 FILLER_16_88
*319 FILLER_16_9
*320 FILLER_16_91
*321 FILLER_16_94
*322 FILLER_16_97
*323 FILLER_17_102
*324 FILLER_17_105
*325 FILLER_17_108
*326 FILLER_17_111
*327 FILLER_17_113
*328 FILLER_17_116
*329 FILLER_17_119
*330 FILLER_17_12
*331 FILLER_17_122
*332 FILLER_17_125
*333 FILLER_17_15
*334 FILLER_17_18
*335 FILLER_17_21
*336 FILLER_17_24
*337 FILLER_17_27
*338 FILLER_17_3
*339 FILLER_17_30
*340 FILLER_17_33
*341 FILLER_17_36
*342 FILLER_17_39
*343 FILLER_17_42
*344 FILLER_17_45
*345 FILLER_17_48
*346 FILLER_17_51
*347 FILLER_17_54
*348 FILLER_17_57
*349 FILLER_17_6
*350 FILLER_17_60
*351 FILLER_17_63
*352 FILLER_17_66
*353 FILLER_17_69
*354 FILLER_17_72
*355 FILLER_17_75
*356 FILLER_17_78
*357 FILLER_17_81
*358 FILLER_17_84
*359 FILLER_17_87
*360 FILLER_17_9
*361 FILLER_17_90
*362 FILLER_17_93
*363 FILLER_17_96
*364 FILLER_17_99
*365 FILLER_18_100
*366 FILLER_18_103
*367 FILLER_18_106
*368 FILLER_18_109
*369 FILLER_18_112
*370 FILLER_18_115
*371 FILLER_18_118
*372 FILLER_18_12
*373 FILLER_18_121
*374 FILLER_18_124
*375 FILLER_18_15
*376 FILLER_18_18
*377 FILLER_18_21
*378 FILLER_18_24
*379 FILLER_18_27
*380 FILLER_18_29
*381 FILLER_18_3
*382 FILLER_18_32
*383 FILLER_18_35
*384 FILLER_18_38
*385 FILLER_18_41
*386 FILLER_18_44
*387 FILLER_18_47
*388 FILLER_18_50
*389 FILLER_18_53
*390 FILLER_18_56
*391 FILLER_18_59
*392 FILLER_18_6
*393 FILLER_18_62
*394 FILLER_18_65
*395 FILLER_18_68
*396 FILLER_18_71
*397 FILLER_18_74
*398 FILLER_18_77
*399 FILLER_18_80
*400 FILLER_18_83
*401 FILLER_18_85
*402 FILLER_18_88
*403 FILLER_18_9
*404 FILLER_18_91
*405 FILLER_18_94
*406 FILLER_18_97
*407 FILLER_19_102
*408 FILLER_19_105
*409 FILLER_19_108
*410 FILLER_19_111
*411 FILLER_19_113
*412 FILLER_19_116
*413 FILLER_19_119
*414 FILLER_19_12
*415 FILLER_19_122
*416 FILLER_19_125
*417 FILLER_19_15
*418 FILLER_19_18
*419 FILLER_19_21
*420 FILLER_19_24
*421 FILLER_19_27
*422 FILLER_19_3
*423 FILLER_19_30
*424 FILLER_19_33
*425 FILLER_19_36
*426 FILLER_19_39
*427 FILLER_19_42
*428 FILLER_19_45
*429 FILLER_19_48
*430 FILLER_19_51
*431 FILLER_19_54
*432 FILLER_19_57
*433 FILLER_19_6
*434 FILLER_19_60
*435 FILLER_19_63
*436 FILLER_19_66
*437 FILLER_19_69
*438 FILLER_19_72
*439 FILLER_19_75
*440 FILLER_19_78
*441 FILLER_19_81
*442 FILLER_19_84
*443 FILLER_19_87
*444 FILLER_19_9
*445 FILLER_19_90
*446 FILLER_19_93
*447 FILLER_19_96
*448 FILLER_19_99
*449 FILLER_1_102
*450 FILLER_1_105
*451 FILLER_1_108
*452 FILLER_1_111
*453 FILLER_1_113
*454 FILLER_1_116
*455 FILLER_1_119
*456 FILLER_1_12
*457 FILLER_1_122
*458 FILLER_1_125
*459 FILLER_1_15
*460 FILLER_1_18
*461 FILLER_1_21
*462 FILLER_1_24
*463 FILLER_1_27
*464 FILLER_1_3
*465 FILLER_1_30
*466 FILLER_1_33
*467 FILLER_1_36
*468 FILLER_1_39
*469 FILLER_1_42
*470 FILLER_1_52
*471 FILLER_1_55
*472 FILLER_1_57
*473 FILLER_1_6
*474 FILLER_1_60
*475 FILLER_1_63
*476 FILLER_1_66
*477 FILLER_1_72
*478 FILLER_1_75
*479 FILLER_1_78
*480 FILLER_1_81
*481 FILLER_1_84
*482 FILLER_1_87
*483 FILLER_1_9
*484 FILLER_1_90
*485 FILLER_1_93
*486 FILLER_1_96
*487 FILLER_1_99
*488 FILLER_20_100
*489 FILLER_20_103
*490 FILLER_20_106
*491 FILLER_20_109
*492 FILLER_20_113
*493 FILLER_20_116
*494 FILLER_20_119
*495 FILLER_20_12
*496 FILLER_20_122
*497 FILLER_20_125
*498 FILLER_20_15
*499 FILLER_20_18
*500 FILLER_20_21
*501 FILLER_20_24
*502 FILLER_20_27
*503 FILLER_20_29
*504 FILLER_20_3
*505 FILLER_20_32
*506 FILLER_20_35
*507 FILLER_20_38
*508 FILLER_20_41
*509 FILLER_20_44
*510 FILLER_20_47
*511 FILLER_20_50
*512 FILLER_20_53
*513 FILLER_20_57
*514 FILLER_20_6
*515 FILLER_20_60
*516 FILLER_20_63
*517 FILLER_20_74
*518 FILLER_20_77
*519 FILLER_20_80
*520 FILLER_20_83
*521 FILLER_20_85
*522 FILLER_20_88
*523 FILLER_20_9
*524 FILLER_20_91
*525 FILLER_20_94
*526 FILLER_20_97
*527 FILLER_2_100
*528 FILLER_2_103
*529 FILLER_2_106
*530 FILLER_2_109
*531 FILLER_2_112
*532 FILLER_2_115
*533 FILLER_2_118
*534 FILLER_2_12
*535 FILLER_2_121
*536 FILLER_2_124
*537 FILLER_2_15
*538 FILLER_2_18
*539 FILLER_2_21
*540 FILLER_2_24
*541 FILLER_2_27
*542 FILLER_2_29
*543 FILLER_2_3
*544 FILLER_2_32
*545 FILLER_2_35
*546 FILLER_2_38
*547 FILLER_2_41
*548 FILLER_2_44
*549 FILLER_2_47
*550 FILLER_2_50
*551 FILLER_2_53
*552 FILLER_2_56
*553 FILLER_2_59
*554 FILLER_2_6
*555 FILLER_2_62
*556 FILLER_2_65
*557 FILLER_2_68
*558 FILLER_2_71
*559 FILLER_2_74
*560 FILLER_2_77
*561 FILLER_2_80
*562 FILLER_2_83
*563 FILLER_2_85
*564 FILLER_2_88
*565 FILLER_2_9
*566 FILLER_2_91
*567 FILLER_2_94
*568 FILLER_2_97
*569 FILLER_3_102
*570 FILLER_3_105
*571 FILLER_3_108
*572 FILLER_3_111
*573 FILLER_3_113
*574 FILLER_3_116
*575 FILLER_3_119
*576 FILLER_3_12
*577 FILLER_3_122
*578 FILLER_3_125
*579 FILLER_3_15
*580 FILLER_3_18
*581 FILLER_3_21
*582 FILLER_3_24
*583 FILLER_3_27
*584 FILLER_3_3
*585 FILLER_3_30
*586 FILLER_3_33
*587 FILLER_3_36
*588 FILLER_3_39
*589 FILLER_3_42
*590 FILLER_3_45
*591 FILLER_3_48
*592 FILLER_3_51
*593 FILLER_3_54
*594 FILLER_3_57
*595 FILLER_3_6
*596 FILLER_3_60
*597 FILLER_3_63
*598 FILLER_3_66
*599 FILLER_3_69
*600 FILLER_3_72
*601 FILLER_3_75
*602 FILLER_3_78
*603 FILLER_3_81
*604 FILLER_3_84
*605 FILLER_3_87
*606 FILLER_3_9
*607 FILLER_3_90
*608 FILLER_3_93
*609 FILLER_3_96
*610 FILLER_3_99
*611 FILLER_4_114
*612 FILLER_4_117
*613 FILLER_4_12
*614 FILLER_4_120
*615 FILLER_4_123
*616 FILLER_4_126
*617 FILLER_4_15
*618 FILLER_4_18
*619 FILLER_4_21
*620 FILLER_4_24
*621 FILLER_4_27
*622 FILLER_4_29
*623 FILLER_4_3
*624 FILLER_4_32
*625 FILLER_4_35
*626 FILLER_4_38
*627 FILLER_4_41
*628 FILLER_4_44
*629 FILLER_4_47
*630 FILLER_4_50
*631 FILLER_4_53
*632 FILLER_4_56
*633 FILLER_4_59
*634 FILLER_4_6
*635 FILLER_4_62
*636 FILLER_4_65
*637 FILLER_4_68
*638 FILLER_4_71
*639 FILLER_4_74
*640 FILLER_4_77
*641 FILLER_4_80
*642 FILLER_4_83
*643 FILLER_4_85
*644 FILLER_4_88
*645 FILLER_4_9
*646 FILLER_4_91
*647 FILLER_5_101
*648 FILLER_5_104
*649 FILLER_5_107
*650 FILLER_5_110
*651 FILLER_5_113
*652 FILLER_5_116
*653 FILLER_5_119
*654 FILLER_5_12
*655 FILLER_5_122
*656 FILLER_5_125
*657 FILLER_5_15
*658 FILLER_5_18
*659 FILLER_5_21
*660 FILLER_5_24
*661 FILLER_5_27
*662 FILLER_5_3
*663 FILLER_5_30
*664 FILLER_5_33
*665 FILLER_5_36
*666 FILLER_5_39
*667 FILLER_5_42
*668 FILLER_5_45
*669 FILLER_5_48
*670 FILLER_5_51
*671 FILLER_5_54
*672 FILLER_5_57
*673 FILLER_5_6
*674 FILLER_5_60
*675 FILLER_5_63
*676 FILLER_5_66
*677 FILLER_5_69
*678 FILLER_5_72
*679 FILLER_5_75
*680 FILLER_5_78
*681 FILLER_5_81
*682 FILLER_5_84
*683 FILLER_5_87
*684 FILLER_5_9
*685 FILLER_5_98
*686 FILLER_6_106
*687 FILLER_6_109
*688 FILLER_6_112
*689 FILLER_6_115
*690 FILLER_6_118
*691 FILLER_6_12
*692 FILLER_6_121
*693 FILLER_6_124
*694 FILLER_6_15
*695 FILLER_6_18
*696 FILLER_6_21
*697 FILLER_6_24
*698 FILLER_6_27
*699 FILLER_6_29
*700 FILLER_6_3
*701 FILLER_6_32
*702 FILLER_6_35
*703 FILLER_6_48
*704 FILLER_6_51
*705 FILLER_6_54
*706 FILLER_6_57
*707 FILLER_6_6
*708 FILLER_6_60
*709 FILLER_6_63
*710 FILLER_6_66
*711 FILLER_6_69
*712 FILLER_6_79
*713 FILLER_6_82
*714 FILLER_6_85
*715 FILLER_6_88
*716 FILLER_6_9
*717 FILLER_7_100
*718 FILLER_7_103
*719 FILLER_7_106
*720 FILLER_7_109
*721 FILLER_7_113
*722 FILLER_7_116
*723 FILLER_7_119
*724 FILLER_7_12
*725 FILLER_7_122
*726 FILLER_7_125
*727 FILLER_7_15
*728 FILLER_7_18
*729 FILLER_7_21
*730 FILLER_7_24
*731 FILLER_7_27
*732 FILLER_7_3
*733 FILLER_7_30
*734 FILLER_7_33
*735 FILLER_7_36
*736 FILLER_7_39
*737 FILLER_7_42
*738 FILLER_7_54
*739 FILLER_7_57
*740 FILLER_7_6
*741 FILLER_7_60
*742 FILLER_7_78
*743 FILLER_7_81
*744 FILLER_7_9
*745 FILLER_8_101
*746 FILLER_8_104
*747 FILLER_8_107
*748 FILLER_8_110
*749 FILLER_8_113
*750 FILLER_8_116
*751 FILLER_8_12
*752 FILLER_8_15
*753 FILLER_8_18
*754 FILLER_8_21
*755 FILLER_8_24
*756 FILLER_8_27
*757 FILLER_8_29
*758 FILLER_8_3
*759 FILLER_8_32
*760 FILLER_8_49
*761 FILLER_8_52
*762 FILLER_8_55
*763 FILLER_8_58
*764 FILLER_8_6
*765 FILLER_8_61
*766 FILLER_8_64
*767 FILLER_8_72
*768 FILLER_8_75
*769 FILLER_8_85
*770 FILLER_8_9
*771 FILLER_8_95
*772 FILLER_8_98
*773 FILLER_9_113
*774 FILLER_9_116
*775 FILLER_9_12
*776 FILLER_9_15
*777 FILLER_9_18
*778 FILLER_9_21
*779 FILLER_9_24
*780 FILLER_9_27
*781 FILLER_9_3
*782 FILLER_9_30
*783 FILLER_9_33
*784 FILLER_9_36
*785 FILLER_9_39
*786 FILLER_9_42
*787 FILLER_9_45
*788 FILLER_9_48
*789 FILLER_9_51
*790 FILLER_9_54
*791 FILLER_9_57
*792 FILLER_9_6
*793 FILLER_9_60
*794 FILLER_9_63
*795 FILLER_9_66
*796 FILLER_9_69
*797 FILLER_9_72
*798 FILLER_9_75
*799 FILLER_9_78
*800 FILLER_9_81
*801 FILLER_9_84
*802 FILLER_9_87
*803 FILLER_9_9
*804 FILLER_9_90
*805 PHY_EDGE_ROW_0_Left_21
*806 PHY_EDGE_ROW_0_Right_0
*807 PHY_EDGE_ROW_10_Left_31
*808 PHY_EDGE_ROW_10_Right_10
*809 PHY_EDGE_ROW_11_Left_32
*810 PHY_EDGE_ROW_11_Right_11
*811 PHY_EDGE_ROW_12_Left_33
*812 PHY_EDGE_ROW_12_Right_12
*813 PHY_EDGE_ROW_13_Left_34
*814 PHY_EDGE_ROW_13_Right_13
*815 PHY_EDGE_ROW_14_Left_35
*816 PHY_EDGE_ROW_14_Right_14
*817 PHY_EDGE_ROW_15_Left_36
*818 PHY_EDGE_ROW_15_Right_15
*819 PHY_EDGE_ROW_16_Left_37
*820 PHY_EDGE_ROW_16_Right_16
*821 PHY_EDGE_ROW_17_Left_38
*822 PHY_EDGE_ROW_17_Right_17
*823 PHY_EDGE_ROW_18_Left_39
*824 PHY_EDGE_ROW_18_Right_18
*825 PHY_EDGE_ROW_19_Left_40
*826 PHY_EDGE_ROW_19_Right_19
*827 PHY_EDGE_ROW_1_Left_22
*828 PHY_EDGE_ROW_1_Right_1
*829 PHY_EDGE_ROW_20_Left_41
*830 PHY_EDGE_ROW_20_Right_20
*831 PHY_EDGE_ROW_2_Left_23
*832 PHY_EDGE_ROW_2_Right_2
*833 PHY_EDGE_ROW_3_Left_24
*834 PHY_EDGE_ROW_3_Right_3
*835 PHY_EDGE_ROW_4_Left_25
*836 PHY_EDGE_ROW_4_Right_4
*837 PHY_EDGE_ROW_5_Left_26
*838 PHY_EDGE_ROW_5_Right_5
*839 PHY_EDGE_ROW_6_Left_27
*840 PHY_EDGE_ROW_6_Right_6
*841 PHY_EDGE_ROW_7_Left_28
*842 PHY_EDGE_ROW_7_Right_7
*843 PHY_EDGE_ROW_8_Left_29
*844 PHY_EDGE_ROW_8_Right_8
*845 PHY_EDGE_ROW_9_Left_30
*846 PHY_EDGE_ROW_9_Right_9
*847 TAP_TAPCELL_ROW_0_42
*848 TAP_TAPCELL_ROW_0_43
*849 TAP_TAPCELL_ROW_0_44
*850 TAP_TAPCELL_ROW_0_45
*851 TAP_TAPCELL_ROW_10_64
*852 TAP_TAPCELL_ROW_10_65
*853 TAP_TAPCELL_ROW_11_66
*854 TAP_TAPCELL_ROW_11_67
*855 TAP_TAPCELL_ROW_12_68
*856 TAP_TAPCELL_ROW_12_69
*857 TAP_TAPCELL_ROW_13_70
*858 TAP_TAPCELL_ROW_13_71
*859 TAP_TAPCELL_ROW_14_72
*860 TAP_TAPCELL_ROW_14_73
*861 TAP_TAPCELL_ROW_15_74
*862 TAP_TAPCELL_ROW_15_75
*863 TAP_TAPCELL_ROW_16_76
*864 TAP_TAPCELL_ROW_16_77
*865 TAP_TAPCELL_ROW_17_78
*866 TAP_TAPCELL_ROW_17_79
*867 TAP_TAPCELL_ROW_18_80
*868 TAP_TAPCELL_ROW_18_81
*869 TAP_TAPCELL_ROW_19_82
*870 TAP_TAPCELL_ROW_19_83
*871 TAP_TAPCELL_ROW_1_46
*872 TAP_TAPCELL_ROW_1_47
*873 TAP_TAPCELL_ROW_20_84
*874 TAP_TAPCELL_ROW_20_85
*875 TAP_TAPCELL_ROW_20_86
*876 TAP_TAPCELL_ROW_20_87
*877 TAP_TAPCELL_ROW_2_48
*878 TAP_TAPCELL_ROW_2_49
*879 TAP_TAPCELL_ROW_3_50
*880 TAP_TAPCELL_ROW_3_51
*881 TAP_TAPCELL_ROW_4_52
*882 TAP_TAPCELL_ROW_4_53
*883 TAP_TAPCELL_ROW_5_54
*884 TAP_TAPCELL_ROW_5_55
*885 TAP_TAPCELL_ROW_6_56
*886 TAP_TAPCELL_ROW_6_57
*887 TAP_TAPCELL_ROW_7_58
*888 TAP_TAPCELL_ROW_7_59
*889 TAP_TAPCELL_ROW_8_60
*890 TAP_TAPCELL_ROW_8_61
*891 TAP_TAPCELL_ROW_9_62
*892 TAP_TAPCELL_ROW_9_63
*893 _20_
*894 _21_
*895 _22_
*896 _23_
*897 _24_
*898 _25_
*899 _26_
*900 _27_
*901 _28_
*902 _29_
*903 _30_
*904 _31_
*905 _32_
*906 _33_
*907 _34_
*908 _35_
*909 _36_
*910 _37_
*911 _38_
*912 _39_
*913 _40_
*914 _41_
*915 _42_
*916 _43_
*917 clkbuf_0_clk
*918 clkbuf_1_0__f_clk
*919 clkbuf_1_1__f_clk
*920 hold13
*921 hold14
*922 hold15
*923 hold16
*924 hold17
*925 hold18
*926 hold19
*927 input1
*928 input2
*929 input3
*930 input4
*931 input5
*932 input6
*933 input7
*934 input8
*935 output10
*936 output11
*937 output12
*938 output9

*PORTS
D[0] I
D[1] I
D[2] I
D[3] I
Q[0] O
Q[1] O
Q[2] O
Q[3] O
S_in I
clk I
mode[0] I
mode[1] I
rst I

*D_NET *1 0.00125882
*CONN
*P D[0] I
*I *927:A I *D sky130_fd_sc_hd__clkdlybuf4s25_1
*CAP
1 D[0] 0.000362724
2 *927:A 0.000362724
3 *927:A *932:A 0.000195294
4 *927:A *933:A 0.000338079
*RES
1 D[0] *927:A 24.0395 
*END

*D_NET *2 0.000881924
*CONN
*P D[1] I
*I *928:A I *D sky130_fd_sc_hd__clkdlybuf4s25_1
*CAP
1 D[1] 0.000440962
2 *928:A 0.000440962
*RES
1 D[1] *928:A 22.2821 
*END

*D_NET *3 0.000683349
*CONN
*P D[2] I
*I *929:A I *D sky130_fd_sc_hd__clkdlybuf4s25_1
*CAP
1 D[2] 0.000336075
2 *929:A 0.000336075
3 *929:A Q[3] 0
4 *929:A *905:C 0
5 *929:A *930:A 1.11993e-05
*RES
1 D[2] *929:A 20.1929 
*END

*D_NET *4 0.00128526
*CONN
*P D[3] I
*I *930:A I *D sky130_fd_sc_hd__clkdlybuf4s25_1
*CAP
1 D[3] 0.00063703
2 *930:A 0.00063703
3 *929:A *930:A 1.11993e-05
*RES
1 D[3] *930:A 26.2464 
*END

*D_NET *5 0.000714778
*CONN
*P Q[0] O
*I *938:X O *D sky130_fd_sc_hd__clkdlybuf4s25_1
*CAP
1 Q[0] 0.000357389
2 *938:X 0.000357389
*RES
1 *938:X Q[0] 18.8244 
*END

*D_NET *6 0.0007203
*CONN
*P Q[1] O
*I *935:X O *D sky130_fd_sc_hd__clkdlybuf4s25_1
*CAP
1 Q[1] 0.000261709
2 *935:X 0.000261709
3 Q[1] *12:14 0.000196882
*RES
1 *935:X Q[1] 18.5208 
*END

*D_NET *7 0.00100421
*CONN
*P Q[2] O
*I *936:X O *D sky130_fd_sc_hd__clkdlybuf4s25_1
*CAP
1 Q[2] 0.000307869
2 *936:X 0.000307869
3 Q[2] *12:14 0.000388476
*RES
1 *936:X Q[2] 19.7351 
*END

*D_NET *8 0.000868086
*CONN
*P Q[3] O
*I *937:X O *D sky130_fd_sc_hd__clkdlybuf4s25_1
*CAP
1 Q[3] 0.000401852
2 *937:X 0.000401852
3 Q[3] *905:C 6.4382e-05
4 *929:A Q[3] 0
*RES
1 *937:X Q[3] 21.425 
*END

*D_NET *9 0.0009158
*CONN
*P S_in I
*I *931:A I *D sky130_fd_sc_hd__clkdlybuf4s25_1
*CAP
1 S_in 0.000271281
2 *931:A 0.000271281
3 *931:A *932:A 0.000373238
4 *931:A *54:12 0
*RES
1 S_in *931:A 19.1154 
*END

*D_NET *12 0.00217295
*CONN
*P clk I
*I *917:A I *D sky130_fd_sc_hd__clkbuf_16
*CAP
1 clk 0.000610615
2 *917:A 0.000127149
3 *12:14 0.000737765
4 *917:A *935:A 5.73433e-05
5 *12:14 *935:A 5.47229e-05
6 Q[1] *12:14 0.000196882
7 Q[2] *12:14 0.000388476
*RES
1 clk *12:14 15.7131 
2 *12:14 *917:A 12.0054 
*END

*D_NET *13 0.00116986
*CONN
*P mode[0] I
*I *932:A I *D sky130_fd_sc_hd__clkdlybuf4s25_1
*CAP
1 mode[0] 0.000300666
2 *932:A 0.000300666
3 *932:A *54:12 0
4 *932:A *55:12 0
5 *927:A *932:A 0.000195294
6 *931:A *932:A 0.000373238
*RES
1 mode[0] *932:A 20.6333 
*END

*D_NET *14 0.00132351
*CONN
*P mode[1] I
*I *933:A I *D sky130_fd_sc_hd__clkdlybuf4s25_1
*CAP
1 mode[1] 0.000492713
2 *933:A 0.000492713
3 *927:A *933:A 0.000338079
*RES
1 mode[1] *933:A 25.896 
*END

*D_NET *15 0.000723464
*CONN
*P rst I
*I *934:A I *D sky130_fd_sc_hd__clkdlybuf4s25_1
*CAP
1 rst 0.000334117
2 *934:A 0.000334117
3 *934:A *937:A 5.52302e-05
*RES
1 rst *934:A 20.1929 
*END

*D_NET *16 0.00127618
*CONN
*I *921:A I *D sky130_fd_sc_hd__dlygate4sd3_1
*I *900:X O *D sky130_fd_sc_hd__o221a_2
*CAP
1 *921:A 0.000530233
2 *900:X 0.000530233
3 *921:A *900:C1 5.52238e-05
4 *921:A *904:A1 0
5 *921:A *904:B1 3.16021e-05
6 *921:A *904:C1 2.28598e-05
7 *921:A *913:D 0
8 *921:A *914:CLK 0
9 *921:A *925:A 4.05411e-05
10 *921:A *25:17 3.65846e-05
11 *921:A *25:28 2.89016e-05
*RES
1 *900:X *921:A 34.7071 
*END

*D_NET *17 0.000947924
*CONN
*I *925:A I *D sky130_fd_sc_hd__dlygate4sd3_1
*I *904:X O *D sky130_fd_sc_hd__o221a_2
*CAP
1 *925:A 0.000453691
2 *904:X 0.000453691
3 *925:A *914:D 0
4 *925:A *38:10 0
5 *921:A *925:A 4.05411e-05
*RES
1 *904:X *925:A 35.3857 
*END

*D_NET *18 0.00112022
*CONN
*I *915:D I *D sky130_fd_sc_hd__dfxtp_2
*I *908:X O *D sky130_fd_sc_hd__o211a_2
*CAP
1 *915:D 0.000273813
2 *908:X 0.000273813
3 *915:D *908:A1 0.000443612
4 *915:D *915:CLK 0.000128986
*RES
1 *908:X *915:D 24.3366 
*END

*D_NET *19 0.000791645
*CONN
*I *923:A I *D sky130_fd_sc_hd__dlygate4sd3_1
*I *912:X O *D sky130_fd_sc_hd__o221a_2
*CAP
1 *923:A 0.000370239
2 *912:X 0.000370239
3 *923:A *916:D 0
4 *923:A *922:A 5.11674e-05
5 *923:A *36:15 0
*RES
1 *912:X *923:A 33.7786 
*END

*D_NET *20 0.00355292
*CONN
*I *903:B1 I *D sky130_fd_sc_hd__o2bb2a_2
*I *907:A2 I *D sky130_fd_sc_hd__a2111o_2
*I *911:A1 I *D sky130_fd_sc_hd__a211o_2
*I *899:A2 I *D sky130_fd_sc_hd__a211o_2
*I *893:Y O *D sky130_fd_sc_hd__inv_2
*CAP
1 *903:B1 0.00024562
2 *907:A2 0
3 *911:A1 0.000240745
4 *899:A2 4.70159e-05
5 *893:Y 0
6 *20:23 0.000681709
7 *20:6 0.000564741
8 *20:4 0.000322382
9 *899:A2 *899:B1 3.41517e-06
10 *899:A2 *55:40 3.72648e-05
11 *903:B1 *900:B1 0.000139482
12 *903:B1 *903:A1_N 0.000320024
13 *911:A1 *907:B1 0.000240696
14 *911:A1 *910:A_N 2.12087e-05
15 *911:A1 *54:48 9.06059e-05
16 *911:A1 *54:54 5.7119e-05
17 *20:6 *900:B1 1.56e-05
18 *20:6 *55:40 0.000140933
19 *20:23 *899:A1 6.24558e-05
20 *20:23 *907:B1 5.49489e-05
21 *20:23 *55:44 0.000185433
22 *20:23 *55:50 8.15258e-05
*RES
1 *893:Y *20:4 9.3 
2 *20:4 *20:6 1.76786 
3 *20:6 *899:A2 10.2643 
4 *20:6 *20:23 19.0714 
5 *20:23 *911:A1 23.55 
6 *20:23 *907:A2 9.3 
7 *20:4 *903:B1 15.5857 
*END

*D_NET *21 0.00480156
*CONN
*I *904:C1 I *D sky130_fd_sc_hd__o221a_2
*I *900:C1 I *D sky130_fd_sc_hd__o221a_2
*I *912:C1 I *D sky130_fd_sc_hd__o221a_2
*I *908:C1 I *D sky130_fd_sc_hd__o211a_2
*I *894:Y O *D sky130_fd_sc_hd__inv_2
*CAP
1 *904:C1 1.22324e-05
2 *900:C1 0.000141834
3 *912:C1 2.23633e-05
4 *908:C1 0
5 *894:Y 0.000665241
6 *21:40 0.000619074
7 *21:23 0.000668729
8 *21:10 0.000846599
9 *900:C1 *900:B1 1.28809e-05
10 *900:C1 *900:B2 6.99255e-05
11 *900:C1 *25:8 1.21289e-05
12 *900:C1 *25:17 8.70594e-05
13 *900:C1 *55:96 0.000247302
14 *904:C1 *25:17 5.52302e-05
15 *912:C1 *910:C 7.25873e-06
16 *912:C1 *912:B1 5.49995e-05
17 *21:10 *894:A 7.43578e-06
18 *21:10 *908:A2 3.67279e-06
19 *21:23 *908:A2 5.87939e-05
20 *21:23 *912:B2 4.27842e-06
21 *21:40 *900:A1 0.0001315
22 *21:40 *903:A2_N 0.000585868
23 *21:40 *904:B1 4.46186e-06
24 *21:40 *904:B2 0
25 *21:40 *910:B 5.12473e-05
26 *21:40 *910:C 0.000147817
27 *21:40 *912:B2 1.0078e-05
28 *21:40 *25:28 0
29 *21:40 *55:98 0.00019547
30 *921:A *900:C1 5.52238e-05
31 *921:A *904:C1 2.28598e-05
*RES
1 *894:Y *21:10 25.6929 
2 *21:10 *908:C1 13.8 
3 *21:10 *21:23 3.51786 
4 *21:23 *912:C1 14.3357 
5 *21:23 *21:40 17.5357 
6 *21:40 *900:C1 13.5679 
7 *21:40 *904:C1 9.83571 
*END

*D_NET *22 0.00178261
*CONN
*I *899:B1 I *D sky130_fd_sc_hd__a211o_2
*I *895:X O *D sky130_fd_sc_hd__and3_2
*CAP
1 *899:B1 0.00074948
2 *895:X 0.00074948
3 *899:B1 *899:C1 5.49544e-05
4 *899:B1 *54:40 4.2678e-05
5 *899:B1 *55:40 0.000182598
6 *899:A2 *899:B1 3.41517e-06
*RES
1 *895:X *899:B1 40.1714 
*END

*D_NET *23 0.00125395
*CONN
*I *900:B2 I *D sky130_fd_sc_hd__o221a_2
*I *896:X O *D sky130_fd_sc_hd__and3b_2
*CAP
1 *900:B2 0.000296319
2 *896:X 0.000296319
3 *900:B2 *900:B1 1.28809e-05
4 *900:B2 *25:8 0.000188586
5 *900:B2 *54:97 5.04589e-05
6 *900:B2 *55:81 0.000168067
7 *900:B2 *55:96 0.000171394
8 *900:C1 *900:B2 6.99255e-05
*RES
1 *896:X *900:B2 26.5464 
*END

*D_NET *24 0.00285858
*CONN
*I *899:C1 I *D sky130_fd_sc_hd__a211o_2
*I *911:B1 I *D sky130_fd_sc_hd__a211o_2
*I *907:B1 I *D sky130_fd_sc_hd__a2111o_2
*I *897:Y O *D sky130_fd_sc_hd__nor2_2
*CAP
1 *899:C1 1.80483e-05
2 *911:B1 0
3 *907:B1 0.000157644
4 *897:Y 0
5 *24:8 0.000338861
6 *24:4 0.000199265
7 *899:C1 *54:40 2.59355e-05
8 *907:B1 *907:A1 2.11336e-05
9 *907:B1 *910:A_N 0.000353767
10 *907:B1 *911:C1 0.00014338
11 *907:B1 *54:48 9.76123e-05
12 *907:B1 *54:54 3.27461e-05
13 *24:8 *911:A2 0.000576945
14 *24:8 *911:C1 1.00332e-05
15 *24:8 *54:40 0.000532612
16 *899:B1 *899:C1 5.49544e-05
17 *911:A1 *907:B1 0.000240696
18 *20:23 *907:B1 5.49489e-05
*RES
1 *897:Y *24:4 9.3 
2 *24:4 *24:8 12.2143 
3 *24:8 *907:B1 19.5857 
4 *24:8 *911:B1 13.8 
5 *24:4 *899:C1 9.83571 
*END

*D_NET *25 0.00351174
*CONN
*I *912:A2 I *D sky130_fd_sc_hd__o221a_2
*I *908:A2 I *D sky130_fd_sc_hd__o211a_2
*I *904:A2 I *D sky130_fd_sc_hd__o221a_2
*I *900:A2 I *D sky130_fd_sc_hd__o221a_2
*I *898:X O *D sky130_fd_sc_hd__or2_2
*CAP
1 *912:A2 2.7583e-05
2 *908:A2 0.000169158
3 *904:A2 0
4 *900:A2 0
5 *898:X 0.000118906
6 *25:28 0.000657768
7 *25:17 0.000663887
8 *25:8 0.000321766
9 *908:A2 *912:B2 5.54817e-06
10 *908:A2 *45:12 4.27842e-06
11 *912:A2 *907:A1 2.85234e-05
12 *25:17 *904:B1 5.4754e-05
13 *25:28 *903:A2_N 0
14 *25:28 *904:A1 0.000379596
15 *25:28 *904:B2 6.42242e-05
16 *25:28 *906:C 0.000419613
17 *25:28 *910:C 0
18 *25:28 *912:B2 5.97578e-05
19 *25:28 *922:A 0
20 *25:28 *45:12 6.54144e-05
21 *900:B2 *25:8 0.000188586
22 *900:C1 *25:8 1.21289e-05
23 *900:C1 *25:17 8.70594e-05
24 *904:C1 *25:17 5.52302e-05
25 *921:A *25:17 3.65846e-05
26 *921:A *25:28 2.89016e-05
27 *21:10 *908:A2 3.67279e-06
28 *21:23 *908:A2 5.87939e-05
29 *21:40 *25:28 0
*RES
1 *898:X *25:8 11.9071 
2 *25:8 *900:A2 9.3 
3 *25:8 *25:17 4.25 
4 *25:17 *904:A2 9.3 
5 *25:17 *25:28 17 
6 *25:28 *908:A2 16.6571 
7 *25:28 *912:A2 14.3357 
*END

*D_NET *26 0.00156821
*CONN
*I *900:B1 I *D sky130_fd_sc_hd__o221a_2
*I *899:X O *D sky130_fd_sc_hd__a211o_2
*CAP
1 *900:B1 0.000585123
2 *899:X 0.000585123
3 *900:B1 *901:A 0
4 *900:B1 *901:B 1.37292e-05
5 *900:B1 *903:A1_N 0.000126639
6 *900:B1 *55:40 5.33334e-05
7 *900:B1 *55:98 2.34204e-05
8 *900:B2 *900:B1 1.28809e-05
9 *900:C1 *900:B1 1.28809e-05
10 *903:B1 *900:B1 0.000139482
11 *20:6 *900:B1 1.56e-05
*RES
1 *899:X *900:B1 36.0687 
*END

*D_NET *27 0.000592416
*CONN
*I *904:B1 I *D sky130_fd_sc_hd__o221a_2
*I *901:X O *D sky130_fd_sc_hd__and3_2
*CAP
1 *904:B1 0.000240674
2 *901:X 0.000240674
3 *904:B1 *901:B 0
4 *904:B1 *901:C 1.57885e-05
5 *904:B1 *904:B2 4.46186e-06
6 *921:A *904:B1 3.16021e-05
7 *21:40 *904:B1 4.46186e-06
8 *25:17 *904:B1 5.4754e-05
*RES
1 *901:X *904:B1 31.4348 
*END

*D_NET *28 0.0012677
*CONN
*I *903:A2_N I *D sky130_fd_sc_hd__o2bb2a_2
*I *902:Y O *D sky130_fd_sc_hd__nand2b_2
*CAP
1 *903:A2_N 0.000324394
2 *902:Y 0.000324394
3 *903:A2_N *904:B2 4.1331e-06
4 *903:A2_N *41:25 2.89114e-05
5 *21:40 *903:A2_N 0.000585868
6 *25:28 *903:A2_N 0
*RES
1 *902:Y *903:A2_N 35.5464 
*END

*D_NET *29 0.000328892
*CONN
*I *904:B2 I *D sky130_fd_sc_hd__o221a_2
*I *903:X O *D sky130_fd_sc_hd__o2bb2a_2
*CAP
1 *904:B2 0.000124646
2 *903:X 0.000124646
3 *904:B2 *43:12 6.78055e-06
4 *903:A2_N *904:B2 4.1331e-06
5 *904:B1 *904:B2 4.46186e-06
6 *21:40 *904:B2 0
7 *25:28 *904:B2 6.42242e-05
*RES
1 *903:X *904:B2 29.7786 
*END

*D_NET *30 0.000383736
*CONN
*I *907:C1 I *D sky130_fd_sc_hd__a2111o_2
*I *905:X O *D sky130_fd_sc_hd__and3_2
*CAP
1 *907:C1 0.000124687
2 *905:X 0.000124687
3 *907:C1 *907:A1 9.67754e-05
4 *907:C1 *55:50 3.75868e-05
*RES
1 *905:X *907:C1 29.5821 
*END

*D_NET *31 0.000490202
*CONN
*I *907:D1 I *D sky130_fd_sc_hd__a2111o_2
*I *906:X O *D sky130_fd_sc_hd__and3b_2
*CAP
1 *907:D1 0.000131872
2 *906:X 0.000131872
3 *907:D1 *906:B 3.69047e-06
4 *907:D1 *906:C 5.33005e-05
5 *907:D1 *55:50 0.000169467
*RES
1 *906:X *907:D1 30.3857 
*END

*D_NET *32 0.00128617
*CONN
*I *908:B1 I *D sky130_fd_sc_hd__o211a_2
*I *907:X O *D sky130_fd_sc_hd__a2111o_2
*CAP
1 *908:B1 0.000641238
2 *907:X 0.000641238
3 *908:B1 *905:C 3.69047e-06
*RES
1 *907:X *908:B1 38.4214 
*END

*D_NET *33 0.000639292
*CONN
*I *911:C1 I *D sky130_fd_sc_hd__a211o_2
*I *909:X O *D sky130_fd_sc_hd__and3_2
*CAP
1 *911:C1 0.000196822
2 *909:X 0.000196822
3 *911:C1 *54:40 1.00332e-05
4 *911:C1 *54:54 8.22008e-05
5 *907:B1 *911:C1 0.00014338
6 *24:8 *911:C1 1.00332e-05
*RES
1 *909:X *911:C1 31.6714 
*END

*D_NET *34 0.000345964
*CONN
*I *912:B1 I *D sky130_fd_sc_hd__o221a_2
*I *910:X O *D sky130_fd_sc_hd__and3b_2
*CAP
1 *912:B1 6.64133e-05
2 *910:X 6.64133e-05
3 *912:B1 *907:A1 0.000141935
4 *912:B1 *910:C 1.62025e-05
5 *912:C1 *912:B1 5.49995e-05
*RES
1 *910:X *912:B1 20.9438 
*END

*D_NET *35 0.00389298
*CONN
*I *912:B2 I *D sky130_fd_sc_hd__o221a_2
*I *911:X O *D sky130_fd_sc_hd__a211o_2
*CAP
1 *912:B2 0.00123456
2 *911:X 0.00123456
3 *912:B2 *906:B 1.53439e-06
4 *912:B2 *906:C 0.00115728
5 *912:B2 *910:C 2.22077e-05
6 *912:B2 *911:A2 2.67407e-05
7 *912:B2 *54:48 0.000136432
8 *908:A2 *912:B2 5.54817e-06
9 *21:23 *912:B2 4.27842e-06
10 *21:40 *912:B2 1.0078e-05
11 *25:28 *912:B2 5.97578e-05
*RES
1 *911:X *912:B2 44.975 
*END

*D_NET *36 0.00393007
*CONN
*I *919:A I *D sky130_fd_sc_hd__clkbuf_16
*I *918:A I *D sky130_fd_sc_hd__clkbuf_16
*I *917:X O *D sky130_fd_sc_hd__clkbuf_16
*CAP
1 *919:A 0.0001017
2 *918:A 8.90389e-05
3 *917:X 0
4 *36:31 0.000777091
5 *36:15 0.000986845
6 *36:6 0.0015732
7 *36:15 *916:CLK 7.5802e-05
8 *36:15 *916:D 3.33321e-05
9 *36:15 *37:8 0.000197527
10 *36:15 *41:21 0
11 *36:31 *914:CLK 0
12 *36:31 *914:D 0
13 *36:31 *920:A 0
14 *36:31 *935:A 4.79842e-05
15 *36:31 *40:10 2.28428e-05
16 *36:31 *40:12 2.47093e-05
17 *923:A *36:15 0
*RES
1 *917:X *36:6 13.8 
2 *36:6 *36:15 21.7232 
3 *36:15 *918:A 10.8625 
4 *36:6 *36:31 17.125 
5 *36:31 *919:A 11.0679 
*END

*D_NET *37 0.00160739
*CONN
*I *916:CLK I *D sky130_fd_sc_hd__dfxtp_2
*I *915:CLK I *D sky130_fd_sc_hd__dfxtp_2
*I *918:X O *D sky130_fd_sc_hd__clkbuf_16
*CAP
1 *916:CLK 0.000276476
2 *915:CLK 0.0001256
3 *918:X 0.000193393
4 *37:8 0.000595469
5 *916:CLK *916:D 1.41376e-05
6 *915:D *915:CLK 0.000128986
7 *36:15 *916:CLK 7.5802e-05
8 *36:15 *37:8 0.000197527
*RES
1 *918:X *37:8 18.4786 
2 *37:8 *915:CLK 16.3893 
3 *37:8 *916:CLK 18.2464 
*END

*D_NET *38 0.000611276
*CONN
*I *913:CLK I *D sky130_fd_sc_hd__dfxtp_2
*I *914:CLK I *D sky130_fd_sc_hd__dfxtp_2
*I *919:X O *D sky130_fd_sc_hd__clkbuf_16
*CAP
1 *913:CLK 0
2 *914:CLK 9.57497e-05
3 *919:X 0.000127879
4 *38:10 0.000223629
5 *914:CLK *913:D 5.33882e-05
6 *914:CLK *914:D 6.48957e-05
7 *38:10 *914:D 4.57352e-05
8 *921:A *914:CLK 0
9 *925:A *38:10 0
10 *36:31 *914:CLK 0
*RES
1 *919:X *38:10 15.9786 
2 *38:10 *914:CLK 16.3536 
3 *38:10 *913:CLK 13.8 
*END

*D_NET *39 0.000837677
*CONN
*I *895:C I *D sky130_fd_sc_hd__and3_2
*I *927:X O *D sky130_fd_sc_hd__clkdlybuf4s25_1
*CAP
1 *895:C 0.000338861
2 *927:X 0.000338861
3 *895:C *54:12 8.9163e-05
4 *895:C *55:12 7.07908e-05
*RES
1 *927:X *895:C 33.6357 
*END

*D_NET *40 0.00681741
*CONN
*I *899:A1 I *D sky130_fd_sc_hd__a211o_2
*I *924:A I *D sky130_fd_sc_hd__dlygate4sd3_1
*I *935:A I *D sky130_fd_sc_hd__clkdlybuf4s25_1
*I *914:Q O *D sky130_fd_sc_hd__dfxtp_2
*CAP
1 *899:A1 0.00200928
2 *924:A 0
3 *935:A 0.000741481
4 *914:Q 0.000216234
5 *40:12 0.000788966
6 *40:10 0.002273
7 *899:A1 *920:A 0.000195386
8 *899:A1 *47:8 0.000292948
9 *899:A1 *54:40 3.00522e-05
10 *40:12 *920:A 0
11 *917:A *935:A 5.73433e-05
12 *12:14 *935:A 5.47229e-05
13 *20:23 *899:A1 6.24558e-05
14 *36:31 *935:A 4.79842e-05
15 *36:31 *40:10 2.28428e-05
16 *36:31 *40:12 2.47093e-05
*RES
1 *914:Q *40:10 16.6036 
2 *40:10 *40:12 1.03571 
3 *40:12 *935:A 24.1036 
4 *40:12 *924:A 13.8 
5 *40:10 *899:A1 48.2821 
*END

*D_NET *41 0.00448837
*CONN
*I *936:A I *D sky130_fd_sc_hd__clkdlybuf4s25_1
*I *902:B I *D sky130_fd_sc_hd__nand2b_2
*I *910:C I *D sky130_fd_sc_hd__and3b_2
*I *926:A I *D sky130_fd_sc_hd__dlygate4sd3_1
*I *915:Q O *D sky130_fd_sc_hd__dfxtp_2
*CAP
1 *936:A 0.000371151
2 *902:B 0
3 *910:C 0.000213479
4 *926:A 0.000352608
5 *915:Q 0
6 *41:25 0.00106458
7 *41:21 0.00145153
8 *41:6 0.000581895
9 *910:C *907:A1 3.19513e-05
10 *41:25 *906:C 0.000143557
11 *41:25 *922:A 5.52238e-05
12 *903:A2_N *41:25 2.89114e-05
13 *912:B1 *910:C 1.62025e-05
14 *912:B2 *910:C 2.22077e-05
15 *912:C1 *910:C 7.25873e-06
16 *21:40 *910:C 0.000147817
17 *25:28 *910:C 0
18 *36:15 *41:21 0
*RES
1 *915:Q *41:6 13.8 
2 *41:6 *926:A 19.9607 
3 *41:6 *41:21 8.57143 
4 *41:21 *41:25 14.9286 
5 *41:25 *910:C 21.9741 
6 *41:25 *902:B 9.3 
7 *41:21 *936:A 15.5857 
*END

*D_NET *42 0.00353596
*CONN
*I *922:A I *D sky130_fd_sc_hd__dlygate4sd3_1
*I *937:A I *D sky130_fd_sc_hd__clkdlybuf4s25_1
*I *916:Q O *D sky130_fd_sc_hd__dfxtp_2
*CAP
1 *922:A 0.000179448
2 *937:A 0.00147915
3 *916:Q 0
4 *42:6 0.0016586
5 *922:A *906:C 0
6 *922:A *45:12 0
7 *937:A *894:A 5.71472e-05
8 *923:A *922:A 5.11674e-05
9 *934:A *937:A 5.52302e-05
10 *25:28 *922:A 0
11 *41:25 *922:A 5.52238e-05
*RES
1 *916:Q *42:6 13.8 
2 *42:6 *937:A 39.3893 
3 *42:6 *922:A 17.4964 
*END

*D_NET *43 0.0022674
*CONN
*I *900:A1 I *D sky130_fd_sc_hd__o221a_2
*I *903:B2 I *D sky130_fd_sc_hd__o2bb2a_2
*I *920:X O *D sky130_fd_sc_hd__dlygate4sd3_1
*CAP
1 *900:A1 8.34655e-05
2 *903:B2 4.7447e-05
3 *920:X 0.000775615
4 *43:12 0.000906528
5 *900:A1 *901:B 5.59013e-05
6 *900:A1 *55:98 0.000198698
7 *903:B2 *903:A1_N 1.58163e-05
8 *43:12 *903:A1_N 4.56525e-05
9 *43:12 *904:A1 0
10 *904:B2 *43:12 6.78055e-06
11 *21:40 *900:A1 0.0001315
*RES
1 *920:X *43:12 27.5679 
2 *43:12 *903:B2 9.83571 
3 *43:12 *900:A1 21.4607 
*END

*D_NET *44 0.000481335
*CONN
*I *913:D I *D sky130_fd_sc_hd__dfxtp_2
*I *921:X O *D sky130_fd_sc_hd__dlygate4sd3_1
*CAP
1 *913:D 0.000213973
2 *921:X 0.000213973
3 *914:CLK *913:D 5.33882e-05
4 *921:A *913:D 0
*RES
1 *921:X *913:D 30.9795 
*END

*D_NET *45 0.00216287
*CONN
*I *912:A1 I *D sky130_fd_sc_hd__o221a_2
*I *907:A1 I *D sky130_fd_sc_hd__a2111o_2
*I *922:X O *D sky130_fd_sc_hd__dlygate4sd3_1
*CAP
1 *912:A1 0
2 *907:A1 0.000697072
3 *922:X 0.000109467
4 *45:12 0.000806539
5 *907:A1 *910:A_N 0.000159779
6 *907:B1 *907:A1 2.11336e-05
7 *907:C1 *907:A1 9.67754e-05
8 *908:A2 *45:12 4.27842e-06
9 *910:C *907:A1 3.19513e-05
10 *912:A2 *907:A1 2.85234e-05
11 *912:B1 *907:A1 0.000141935
12 *922:A *45:12 0
13 *25:28 *45:12 6.54144e-05
*RES
1 *922:X *45:12 20.4786 
2 *45:12 *907:A1 22.4964 
3 *45:12 *912:A1 9.3 
*END

*D_NET *46 0.000309239
*CONN
*I *916:D I *D sky130_fd_sc_hd__dfxtp_2
*I *923:X O *D sky130_fd_sc_hd__dlygate4sd3_1
*CAP
1 *916:D 0.000130885
2 *923:X 0.000130885
3 *916:CLK *916:D 1.41376e-05
4 *923:A *916:D 0
5 *36:15 *916:D 3.33321e-05
*RES
1 *923:X *916:D 29.9259 
*END

*D_NET *47 0.00485469
*CONN
*I *904:A1 I *D sky130_fd_sc_hd__o221a_2
*I *906:C I *D sky130_fd_sc_hd__and3b_2
*I *924:X O *D sky130_fd_sc_hd__dlygate4sd3_1
*CAP
1 *904:A1 0.000199433
2 *906:C 0.000614524
3 *924:X 0.000318724
4 *47:8 0.00113268
5 *906:C *902:A_N 5.52302e-05
6 *906:C *906:B 3.06505e-05
7 *47:8 *920:A 5.71472e-05
8 *899:A1 *47:8 0.000292948
9 *907:D1 *906:C 5.33005e-05
10 *912:B2 *906:C 0.00115728
11 *921:A *904:A1 0
12 *922:A *906:C 0
13 *25:28 *904:A1 0.000379596
14 *25:28 *906:C 0.000419613
15 *41:25 *906:C 0.000143557
16 *43:12 *904:A1 0
*RES
1 *924:X *47:8 21.3179 
2 *47:8 *906:C 31.3268 
3 *47:8 *904:A1 18.7821 
*END

*D_NET *48 0.000747474
*CONN
*I *914:D I *D sky130_fd_sc_hd__dfxtp_2
*I *925:X O *D sky130_fd_sc_hd__dlygate4sd3_1
*CAP
1 *914:D 0.000318422
2 *925:X 0.000318422
3 *914:CLK *914:D 6.48957e-05
4 *925:A *914:D 0
5 *36:31 *914:D 0
6 *38:10 *914:D 4.57352e-05
*RES
1 *925:X *914:D 33.9616 
*END

*D_NET *49 0.00126268
*CONN
*I *908:A1 I *D sky130_fd_sc_hd__o211a_2
*I *926:X O *D sky130_fd_sc_hd__dlygate4sd3_1
*CAP
1 *908:A1 0.000409535
2 *926:X 0.000409535
3 *915:D *908:A1 0.000443612
*RES
1 *926:X *908:A1 36.1089 
*END

*D_NET *50 0.00231925
*CONN
*I *901:C I *D sky130_fd_sc_hd__and3_2
*I *928:X O *D sky130_fd_sc_hd__clkdlybuf4s25_1
*CAP
1 *901:C 0.00115173
2 *928:X 0.00115173
3 *904:B1 *901:C 1.57885e-05
*RES
1 *928:X *901:C 46.6179 
*END

*D_NET *51 0.00300675
*CONN
*I *905:C I *D sky130_fd_sc_hd__and3_2
*I *929:X O *D sky130_fd_sc_hd__clkdlybuf4s25_1
*CAP
1 *905:C 0.000884626
2 *929:X 0.000884626
3 *905:C *909:C 0.00116943
4 Q[3] *905:C 6.4382e-05
5 *908:B1 *905:C 3.69047e-06
6 *929:A *905:C 0
*RES
1 *929:X *905:C 46.2429 
*END

*D_NET *52 0.00280913
*CONN
*I *909:C I *D sky130_fd_sc_hd__and3_2
*I *930:X O *D sky130_fd_sc_hd__clkdlybuf4s25_1
*CAP
1 *909:C 0.000680543
2 *930:X 0.000680543
3 *909:C *905:A 0.000172745
4 *909:C *909:A 1.32056e-05
5 *909:C *909:B 2.79469e-05
6 *909:C *55:50 6.47209e-05
7 *905:C *909:C 0.00116943
*RES
1 *930:X *909:C 44.6714 
*END

*D_NET *53 0.00421296
*CONN
*I *896:C I *D sky130_fd_sc_hd__and3b_2
*I *911:A2 I *D sky130_fd_sc_hd__a211o_2
*I *931:X O *D sky130_fd_sc_hd__clkdlybuf4s25_1
*CAP
1 *896:C 3.45572e-05
2 *911:A2 0.000529597
3 *931:X 0.000267279
4 *53:8 0.000831434
5 *896:C *896:B 3.30871e-05
6 *896:C *54:97 0.000145127
7 *911:A2 *897:B 5.48715e-05
8 *911:A2 *54:48 6.05161e-06
9 *911:A2 *55:23 5.22009e-05
10 *53:8 *896:B 3.05605e-05
11 *53:8 *54:20 0.00104732
12 *53:8 *54:91 9.58181e-05
13 *53:8 *54:97 2.5362e-05
14 *53:8 *55:12 4.88515e-05
15 *53:8 *55:19 0.000407159
16 *912:B2 *911:A2 2.67407e-05
17 *24:8 *911:A2 0.000576945
*RES
1 *931:X *53:8 21.7643 
2 *53:8 *911:A2 29.5679 
3 *53:8 *896:C 10.6973 
*END

*D_NET *54 0.0120409
*CONN
*I *895:A I *D sky130_fd_sc_hd__and3_2
*I *896:A_N I *D sky130_fd_sc_hd__and3b_2
*I *898:A I *D sky130_fd_sc_hd__or2_2
*I *901:A I *D sky130_fd_sc_hd__and3_2
*I *903:A1_N I *D sky130_fd_sc_hd__o2bb2a_2
*I *897:A I *D sky130_fd_sc_hd__nor2_2
*I *906:A_N I *D sky130_fd_sc_hd__and3b_2
*I *910:A_N I *D sky130_fd_sc_hd__and3b_2
*I *905:A I *D sky130_fd_sc_hd__and3_2
*I *909:A I *D sky130_fd_sc_hd__and3_2
*I *932:X O *D sky130_fd_sc_hd__clkdlybuf4s25_1
*CAP
1 *895:A 0
2 *896:A_N 0
3 *898:A 0
4 *901:A 0.000382915
5 *903:A1_N 0.000351126
6 *897:A 0
7 *906:A_N 0
8 *910:A_N 0.000724275
9 *905:A 3.39172e-05
10 *909:A 5.59406e-05
11 *932:X 0.00014823
12 *54:99 0.000734041
13 *54:97 0.000614646
14 *54:91 0.000658951
15 *54:54 0.000289196
16 *54:48 0.00105343
17 *54:40 0.000580767
18 *54:26 0.000543105
19 *54:20 0.000664612
20 *54:12 0.000676386
21 *901:A *901:B 0
22 *903:A1_N *55:81 0
23 *903:A1_N *55:98 0
24 *905:A *909:B 6.85998e-05
25 *909:A *909:B 4.85049e-06
26 *54:12 *55:12 7.6644e-05
27 *54:26 *897:B 5.63882e-05
28 *54:26 *55:23 9.11933e-05
29 *54:97 *55:81 0.000318107
30 *54:97 *55:96 8.74003e-05
31 *895:C *54:12 8.9163e-05
32 *896:C *54:97 0.000145127
33 *899:A1 *54:40 3.00522e-05
34 *899:B1 *54:40 4.2678e-05
35 *899:C1 *54:40 2.59355e-05
36 *900:B1 *901:A 0
37 *900:B1 *903:A1_N 0.000126639
38 *900:B2 *54:97 5.04589e-05
39 *903:B1 *903:A1_N 0.000320024
40 *903:B2 *903:A1_N 1.58163e-05
41 *907:A1 *910:A_N 0.000159779
42 *907:B1 *910:A_N 0.000353767
43 *907:B1 *54:48 9.76123e-05
44 *907:B1 *54:54 3.27461e-05
45 *909:C *905:A 0.000172745
46 *909:C *909:A 1.32056e-05
47 *911:A1 *910:A_N 2.12087e-05
48 *911:A1 *54:48 9.06059e-05
49 *911:A1 *54:54 5.7119e-05
50 *911:A2 *54:48 6.05161e-06
51 *911:C1 *54:40 1.00332e-05
52 *911:C1 *54:54 8.22008e-05
53 *912:B2 *54:48 0.000136432
54 *931:A *54:12 0
55 *932:A *54:12 0
56 *24:8 *54:40 0.000532612
57 *43:12 *903:A1_N 4.56525e-05
58 *53:8 *54:20 0.00104732
59 *53:8 *54:91 9.58181e-05
60 *53:8 *54:97 2.5362e-05
*RES
1 *932:X *54:12 21.0857 
2 *54:12 *54:20 11.375 
3 *54:20 *54:26 10.9464 
4 *54:26 *54:40 19.2679 
5 *54:40 *54:48 7.625 
6 *54:48 *54:54 8.39286 
7 *54:54 *909:A 10.2464 
8 *54:54 *905:A 11.0679 
9 *54:48 *910:A_N 23.8 
10 *54:40 *906:A_N 9.3 
11 *54:26 *897:A 9.3 
12 *54:20 *54:91 0.946429 
13 *54:91 *54:97 8.78571 
14 *54:97 *54:99 4.5 
15 *54:99 *903:A1_N 20.8089 
16 *54:99 *901:A 19.8536 
17 *54:97 *898:A 9.3 
18 *54:91 *896:A_N 9.3 
19 *54:12 *895:A 9.3 
*END

*D_NET *55 0.0113002
*CONN
*I *896:B I *D sky130_fd_sc_hd__and3b_2
*I *893:A I *D sky130_fd_sc_hd__inv_2
*I *901:B I *D sky130_fd_sc_hd__and3_2
*I *902:A_N I *D sky130_fd_sc_hd__nand2b_2
*I *910:B I *D sky130_fd_sc_hd__and3b_2
*I *898:B I *D sky130_fd_sc_hd__or2_2
*I *906:B I *D sky130_fd_sc_hd__and3b_2
*I *905:B I *D sky130_fd_sc_hd__and3_2
*I *909:B I *D sky130_fd_sc_hd__and3_2
*I *897:B I *D sky130_fd_sc_hd__nor2_2
*I *895:B I *D sky130_fd_sc_hd__and3_2
*I *933:X O *D sky130_fd_sc_hd__clkdlybuf4s25_1
*CAP
1 *896:B 0.000163238
2 *893:A 0
3 *901:B 0.000149098
4 *902:A_N 2.3671e-05
5 *910:B 0.00016602
6 *898:B 0
7 *906:B 0.000109718
8 *905:B 1.67135e-05
9 *909:B 0.000153622
10 *897:B 1.92175e-05
11 *895:B 0
12 *933:X 0.000398744
13 *55:98 0.000578753
14 *55:96 0.000812044
15 *55:81 0.000452346
16 *55:50 0.000508217
17 *55:44 0.000750922
18 *55:42 0.000481784
19 *55:40 0.000342875
20 *55:23 0.000480361
21 *55:19 0.000988881
22 *55:12 0.00110612
23 *895:C *55:12 7.07908e-05
24 *896:C *896:B 3.30871e-05
25 *899:A2 *55:40 3.72648e-05
26 *899:B1 *55:40 0.000182598
27 *900:A1 *901:B 5.59013e-05
28 *900:A1 *55:98 0.000198698
29 *900:B1 *901:B 1.37292e-05
30 *900:B1 *55:40 5.33334e-05
31 *900:B1 *55:98 2.34204e-05
32 *900:B2 *55:81 0.000168067
33 *900:B2 *55:96 0.000171394
34 *900:C1 *55:96 0.000247302
35 *901:A *901:B 0
36 *903:A1_N *55:81 0
37 *903:A1_N *55:98 0
38 *904:B1 *901:B 0
39 *905:A *909:B 6.85998e-05
40 *906:C *902:A_N 5.52302e-05
41 *906:C *906:B 3.06505e-05
42 *907:C1 *55:50 3.75868e-05
43 *907:D1 *906:B 3.69047e-06
44 *907:D1 *55:50 0.000169467
45 *909:A *909:B 4.85049e-06
46 *909:C *909:B 2.79469e-05
47 *909:C *55:50 6.47209e-05
48 *911:A2 *897:B 5.48715e-05
49 *911:A2 *55:23 5.22009e-05
50 *912:B2 *906:B 1.53439e-06
51 *932:A *55:12 0
52 *20:6 *55:40 0.000140933
53 *20:23 *55:44 0.000185433
54 *20:23 *55:50 8.15258e-05
55 *21:40 *910:B 5.12473e-05
56 *21:40 *55:98 0.00019547
57 *53:8 *896:B 3.05605e-05
58 *53:8 *55:12 4.88515e-05
59 *53:8 *55:19 0.000407159
60 *54:12 *55:12 7.6644e-05
61 *54:26 *897:B 5.63882e-05
62 *54:26 *55:23 9.11933e-05
63 *54:97 *55:81 0.000318107
64 *54:97 *55:96 8.74003e-05
*RES
1 *933:X *55:12 25.55 
2 *55:12 *895:B 9.3 
3 *55:12 *55:19 9.98214 
4 *55:19 *55:23 7.05357 
5 *55:23 *897:B 14.5321 
6 *55:23 *55:40 10 
7 *55:40 *55:42 4.5 
8 *55:42 *55:44 6.80357 
9 *55:44 *55:50 11.5536 
10 *55:50 *909:B 12.3179 
11 *55:50 *905:B 9.72857 
12 *55:44 *906:B 15.1571 
13 *55:42 *55:81 9.44643 
14 *55:81 *898:B 9.3 
15 *55:81 *55:96 10.0179 
16 *55:96 *55:98 9.23214 
17 *55:98 *910:B 16.9607 
18 *55:98 *902:A_N 14.3357 
19 *55:96 *901:B 16.3536 
20 *55:40 *893:A 9.3 
21 *55:19 *896:B 11.4786 
*END

*D_NET *56 0.000792193
*CONN
*I *894:A I *D sky130_fd_sc_hd__inv_2
*I *934:X O *D sky130_fd_sc_hd__clkdlybuf4s25_1
*CAP
1 *894:A 0.000363805
2 *934:X 0.000363805
3 *937:A *894:A 5.71472e-05
4 *21:10 *894:A 7.43578e-06
*RES
1 *934:X *894:A 33.9929 
*END

*D_NET *57 0.00231147
*CONN
*I *938:A I *D sky130_fd_sc_hd__clkdlybuf4s25_1
*I *920:A I *D sky130_fd_sc_hd__dlygate4sd3_1
*I *913:Q O *D sky130_fd_sc_hd__dfxtp_2
*CAP
1 *938:A 0.000554598
2 *920:A 0.00047487
3 *913:Q 0.00102947
4 *899:A1 *920:A 0.000195386
5 *36:31 *920:A 0
6 *40:12 *920:A 0
7 *47:8 *920:A 5.71472e-05
*RES
1 *913:Q *920:A 36.725 
2 *913:Q *938:A 35.9571 
*END
