*SPEF "ieee 1481-1999"
*DESIGN "u_s_r"
*DATE "20:26:50 Wednesday June 03, 2026"
*VENDOR "The OpenROAD Project"
*PROGRAM "OpenROAD"
*VERSION "dcf36133a369abc8f3c5e5738cd4d82e4903c0e0"
*DESIGN_FLOW "NAME_SCOPE LOCAL" "PIN_CAP NONE"
*DIVIDER /
*DELIMITER :
*BUS_DELIMITER []
*T_UNIT 1 NS
*C_UNIT 1 PF
*R_UNIT 1 OHM
*L_UNIT 1 HENRY

*NAME_MAP
*1 D[0]
*2 D[1]
*3 D[2]
*4 D[3]
*5 Q[0]
*6 Q[1]
*7 Q[2]
*8 Q[3]
*9 S_in
*12 clk
*13 mode[0]
*14 mode[1]
*15 rst
*16 _00_
*17 _01_
*18 _02_
*19 _03_
*20 _04_
*21 _05_
*22 _06_
*23 _07_
*24 _08_
*25 _09_
*26 _10_
*27 _11_
*28 _12_
*29 _13_
*30 _14_
*31 _15_
*32 _16_
*33 _17_
*34 _18_
*35 _19_
*36 clknet_0_clk
*37 clknet_1_0__leaf_clk
*38 clknet_1_1__leaf_clk
*39 net1
*40 net10
*41 net11
*42 net12
*43 net13
*44 net14
*45 net15
*46 net16
*47 net17
*48 net18
*49 net19
*50 net2
*51 net3
*52 net4
*53 net5
*54 net6
*55 net7
*56 net8
*57 net9
*58 FILLER_0_29
*59 FILLER_0_3
*60 FILLER_0_6
*61 FILLER_0_62
*62 FILLER_0_9
*63 FILLER_10_12
*64 FILLER_10_15
*65 FILLER_10_18
*66 FILLER_10_21
*67 FILLER_10_24
*68 FILLER_10_27
*69 FILLER_10_29
*70 FILLER_10_3
*71 FILLER_10_40
*72 FILLER_10_6
*73 FILLER_10_70
*74 FILLER_10_9
*75 FILLER_11_12
*76 FILLER_11_15
*77 FILLER_11_18
*78 FILLER_11_21
*79 FILLER_11_24
*80 FILLER_11_27
*81 FILLER_11_29
*82 FILLER_11_3
*83 FILLER_11_32
*84 FILLER_11_50
*85 FILLER_11_53
*86 FILLER_11_6
*87 FILLER_11_65
*88 FILLER_11_68
*89 FILLER_11_71
*90 FILLER_11_9
*91 FILLER_1_20
*92 FILLER_1_3
*93 FILLER_1_54
*94 FILLER_1_57
*95 FILLER_1_6
*96 FILLER_1_68
*97 FILLER_1_71
*98 FILLER_1_9
*99 FILLER_2_12
*100 FILLER_2_15
*101 FILLER_2_18
*102 FILLER_2_29
*103 FILLER_2_3
*104 FILLER_2_32
*105 FILLER_2_6
*106 FILLER_2_9
*107 FILLER_3_12
*108 FILLER_3_15
*109 FILLER_3_18
*110 FILLER_3_21
*111 FILLER_3_28
*112 FILLER_3_3
*113 FILLER_3_55
*114 FILLER_3_6
*115 FILLER_3_68
*116 FILLER_3_71
*117 FILLER_3_9
*118 FILLER_4_12
*119 FILLER_4_15
*120 FILLER_4_18
*121 FILLER_4_21
*122 FILLER_4_24
*123 FILLER_4_27
*124 FILLER_4_29
*125 FILLER_4_3
*126 FILLER_4_37
*127 FILLER_4_6
*128 FILLER_4_71
*129 FILLER_4_9
*130 FILLER_5_12
*131 FILLER_5_15
*132 FILLER_5_18
*133 FILLER_5_21
*134 FILLER_5_24
*135 FILLER_5_27
*136 FILLER_5_3
*137 FILLER_5_30
*138 FILLER_5_33
*139 FILLER_5_36
*140 FILLER_5_39
*141 FILLER_5_42
*142 FILLER_5_45
*143 FILLER_5_57
*144 FILLER_5_6
*145 FILLER_5_60
*146 FILLER_5_63
*147 FILLER_5_9
*148 FILLER_6_12
*149 FILLER_6_15
*150 FILLER_6_18
*151 FILLER_6_21
*152 FILLER_6_24
*153 FILLER_6_27
*154 FILLER_6_29
*155 FILLER_6_3
*156 FILLER_6_32
*157 FILLER_6_35
*158 FILLER_6_38
*159 FILLER_6_45
*160 FILLER_6_48
*161 FILLER_6_6
*162 FILLER_6_70
*163 FILLER_6_9
*164 FILLER_7_12
*165 FILLER_7_15
*166 FILLER_7_18
*167 FILLER_7_21
*168 FILLER_7_24
*169 FILLER_7_27
*170 FILLER_7_3
*171 FILLER_7_30
*172 FILLER_7_33
*173 FILLER_7_36
*174 FILLER_7_55
*175 FILLER_7_6
*176 FILLER_7_65
*177 FILLER_7_68
*178 FILLER_7_71
*179 FILLER_7_9
*180 FILLER_8_12
*181 FILLER_8_15
*182 FILLER_8_18
*183 FILLER_8_21
*184 FILLER_8_24
*185 FILLER_8_27
*186 FILLER_8_29
*187 FILLER_8_3
*188 FILLER_8_52
*189 FILLER_8_6
*190 FILLER_8_71
*191 FILLER_8_9
*192 FILLER_9_12
*193 FILLER_9_15
*194 FILLER_9_18
*195 FILLER_9_21
*196 FILLER_9_24
*197 FILLER_9_27
*198 FILLER_9_3
*199 FILLER_9_30
*200 FILLER_9_33
*201 FILLER_9_57
*202 FILLER_9_6
*203 FILLER_9_67
*204 FILLER_9_70
*205 FILLER_9_9
*206 PHY_EDGE_ROW_0_Left_12
*207 PHY_EDGE_ROW_0_Right_0
*208 PHY_EDGE_ROW_10_Left_22
*209 PHY_EDGE_ROW_10_Right_10
*210 PHY_EDGE_ROW_11_Left_23
*211 PHY_EDGE_ROW_11_Right_11
*212 PHY_EDGE_ROW_1_Left_13
*213 PHY_EDGE_ROW_1_Right_1
*214 PHY_EDGE_ROW_2_Left_14
*215 PHY_EDGE_ROW_2_Right_2
*216 PHY_EDGE_ROW_3_Left_15
*217 PHY_EDGE_ROW_3_Right_3
*218 PHY_EDGE_ROW_4_Left_16
*219 PHY_EDGE_ROW_4_Right_4
*220 PHY_EDGE_ROW_5_Left_17
*221 PHY_EDGE_ROW_5_Right_5
*222 PHY_EDGE_ROW_6_Left_18
*223 PHY_EDGE_ROW_6_Right_6
*224 PHY_EDGE_ROW_7_Left_19
*225 PHY_EDGE_ROW_7_Right_7
*226 PHY_EDGE_ROW_8_Left_20
*227 PHY_EDGE_ROW_8_Right_8
*228 PHY_EDGE_ROW_9_Left_21
*229 PHY_EDGE_ROW_9_Right_9
*230 TAP_TAPCELL_ROW_0_24
*231 TAP_TAPCELL_ROW_0_25
*232 TAP_TAPCELL_ROW_10_35
*233 TAP_TAPCELL_ROW_11_36
*234 TAP_TAPCELL_ROW_11_37
*235 TAP_TAPCELL_ROW_1_26
*236 TAP_TAPCELL_ROW_2_27
*237 TAP_TAPCELL_ROW_3_28
*238 TAP_TAPCELL_ROW_4_29
*239 TAP_TAPCELL_ROW_5_30
*240 TAP_TAPCELL_ROW_6_31
*241 TAP_TAPCELL_ROW_7_32
*242 TAP_TAPCELL_ROW_8_33
*243 TAP_TAPCELL_ROW_9_34
*244 _20_
*245 _21_
*246 _22_
*247 _23_
*248 _24_
*249 _25_
*250 _26_
*251 _27_
*252 _28_
*253 _29_
*254 _30_
*255 _31_
*256 _32_
*257 _33_
*258 _34_
*259 _35_
*260 _36_
*261 _37_
*262 _38_
*263 _39_
*264 _40_
*265 _41_
*266 _42_
*267 _43_
*268 clkbuf_0_clk
*269 clkbuf_1_0__f_clk
*270 clkbuf_1_1__f_clk
*271 hold13
*272 hold14
*273 hold15
*274 hold16
*275 hold17
*276 hold18
*277 hold19
*278 input1
*279 input2
*280 input3
*281 input4
*282 input5
*283 input6
*284 input7
*285 input8
*286 output10
*287 output11
*288 output12
*289 output9

*PORTS
D[0] I
D[1] I
D[2] I
D[3] I
Q[0] O
Q[1] O
Q[2] O
Q[3] O
S_in I
clk I
mode[0] I
mode[1] I
rst I

*D_NET *1 0.00240983
*CONN
*P D[0] I
*I *278:A I *D sky130_fd_sc_hd__clkdlybuf4s25_1
*CAP
1 D[0] 0.000590058
2 *278:A 0.000590058
3 *278:A *250:B1 0.000228242
4 *278:A *260:C 0
5 *278:A *262:A1 0
6 *278:A *273:A 0.00015751
7 *278:A *280:A 0.00043016
8 *278:A *282:A 0.000380802
9 *278:A *289:A 3.29947e-05
*RES
1 D[0] *278:A 17.955 
*END

*D_NET *2 0.00112013
*CONN
*P D[1] I
*I *279:A I *D sky130_fd_sc_hd__clkdlybuf4s25_1
*CAP
1 D[1] 0.00040094
2 *279:A 0.00040094
3 *279:A *245:A 0
4 *279:A *252:C 5.83121e-06
5 *279:A *285:A 0.000312418
*RES
1 D[1] *279:A 12.375 
*END

*D_NET *3 0.00222433
*CONN
*P D[2] I
*I *280:A I *D sky130_fd_sc_hd__clkdlybuf4s25_1
*CAP
1 D[2] 0.000656558
2 *280:A 0.000656558
3 *280:A *260:C 0
4 *280:A *282:A 0.000200936
5 *280:A *283:A 0.000125284
6 *280:A *284:A 0
7 *280:A *53:12 0.000143266
8 *280:A *54:10 1.15688e-05
9 *278:A *280:A 0.00043016
*RES
1 D[2] *280:A 21.445 
*END

*D_NET *4 0.000863547
*CONN
*P D[3] I
*I *281:A I *D sky130_fd_sc_hd__clkdlybuf4s25_1
*CAP
1 D[3] 0.000294354
2 *281:A 0.000294354
3 *281:A *250:B1 9.09788e-06
4 *281:A *262:B1 1.08129e-05
5 *281:A *282:A 0.000254928
*RES
1 D[3] *281:A 10.215 
*END

*D_NET *5 0.00110028
*CONN
*P Q[0] O
*I *289:X O *D sky130_fd_sc_hd__clkdlybuf4s25_1
*CAP
1 Q[0] 0.000471937
2 *289:X 0.000471937
3 Q[0] *40:14 0.000156409
*RES
1 *289:X Q[0] 8.25637 
*END

*D_NET *6 0.00241101
*CONN
*P Q[1] O
*I *286:X O *D sky130_fd_sc_hd__clkdlybuf4s25_1
*CAP
1 Q[1] 0.000789654
2 *286:X 0.000789654
3 Q[1] Q[3] 0.000345293
4 Q[1] *254:B2 0.000281711
5 Q[1] *267:CLK 0.000149604
6 Q[1] *36:19 5.50989e-05
*RES
1 *286:X Q[1] 9.18863 
*END

*D_NET *7 0.00143108
*CONN
*P Q[2] O
*I *287:X O *D sky130_fd_sc_hd__clkdlybuf4s25_1
*CAP
1 Q[2] 0.000572767
2 *287:X 0.000572767
3 Q[2] *12:10 0.000285546
*RES
1 *287:X Q[2] 13.02 
*END

*D_NET *8 0.00181698
*CONN
*P Q[3] O
*I *288:X O *D sky130_fd_sc_hd__clkdlybuf4s25_1
*CAP
1 Q[3] 0.000547905
2 *288:X 0.000547905
3 Q[3] *288:A 0.00011741
4 Q[3] *42:8 0.000258467
5 Q[1] Q[3] 0.000345293
*RES
1 *288:X Q[3] 12.5914 
*END

*D_NET *9 0.00169312
*CONN
*P S_in I
*I *282:A I *D sky130_fd_sc_hd__clkdlybuf4s25_1
*CAP
1 S_in 0.000290572
2 *282:A 0.000290572
3 *282:A *248:A 0.00018872
4 *282:A *283:A 8.65905e-05
5 *278:A *282:A 0.000380802
6 *280:A *282:A 0.000200936
7 *281:A *282:A 0.000254928
*RES
1 S_in *282:A 13.665 
*END

*D_NET *12 0.00248714
*CONN
*P clk I
*I *268:A I *D sky130_fd_sc_hd__clkbuf_16
*CAP
1 clk 0.000698002
2 *268:A 0
3 *12:10 0.000698002
4 *12:10 *254:A2_N 4.95778e-05
5 *12:10 *255:B2 0
6 *12:10 *259:A2 0
7 *12:10 *259:B1 0.000106788
8 *12:10 *259:C1 0.00037656
9 *12:10 *287:A 0
10 *12:10 *25:38 0
11 *12:10 *36:19 2.2016e-05
12 *12:10 *36:31 0.000250644
13 Q[2] *12:10 0.000285546
*RES
1 clk *12:10 17.04 
2 *12:10 *268:A 3.6 
*END

*D_NET *13 0.00141479
*CONN
*P mode[0] I
*I *283:A I *D sky130_fd_sc_hd__clkdlybuf4s25_1
*CAP
1 mode[0] 0.000282811
2 *283:A 0.000282811
3 *283:A *248:A 0.000314745
4 *283:A *284:A 0.000235957
5 *283:A *54:6 8.65905e-05
6 *280:A *283:A 0.000125284
7 *282:A *283:A 8.65905e-05
*RES
1 mode[0] *283:A 12.18 
*END

*D_NET *14 0.00189664
*CONN
*P mode[1] I
*I *284:A I *D sky130_fd_sc_hd__clkdlybuf4s25_1
*CAP
1 mode[1] 0.000493474
2 *284:A 0.000493474
3 *284:A *247:B 0
4 *284:A *256:C 0
5 *284:A *257:A_N 4.82863e-05
6 *284:A *258:C1 5.05437e-05
7 *284:A *260:C 0.0005749
8 *284:A *54:10 0
9 *280:A *284:A 0
10 *283:A *284:A 0.000235957
*RES
1 mode[1] *284:A 15.69 
*END

*D_NET *15 0.000844357
*CONN
*P rst I
*I *285:A I *D sky130_fd_sc_hd__clkdlybuf4s25_1
*CAP
1 rst 0.000265969
2 *285:A 0.000265969
3 *279:A *285:A 0.000312418
*RES
1 rst *285:A 10.08 
*END

*D_NET *16 0.000331172
*CONN
*I *274:A I *D sky130_fd_sc_hd__dlygate4sd3_1
*I *251:X O *D sky130_fd_sc_hd__o221a_2
*CAP
1 *274:A 8.82609e-05
2 *251:X 8.82609e-05
3 *274:A *250:A1 0
4 *274:A *258:B1 7.63204e-05
5 *274:A *264:D 0
6 *274:A *20:25 4.82919e-05
7 *274:A *24:12 3.00381e-05
*RES
1 *251:X *274:A 9.285 
*END

*D_NET *17 0.00126999
*CONN
*I *276:A I *D sky130_fd_sc_hd__dlygate4sd3_1
*I *255:X O *D sky130_fd_sc_hd__o221a_2
*CAP
1 *276:A 0.000493203
2 *255:X 0.000493203
3 *276:A *255:A1 0.000269209
4 *276:A *257:C 0
5 *276:A *265:D 1.43717e-05
6 *276:A *40:14 0
*RES
1 *255:X *276:A 13.515 
*END

*D_NET *18 0.00138604
*CONN
*I *266:D I *D sky130_fd_sc_hd__dfxtp_2
*I *259:X O *D sky130_fd_sc_hd__o211a_2
*CAP
1 *266:D 0.000415273
2 *259:X 0.000415273
3 *266:D *259:A1 6.30172e-05
4 *266:D *259:A2 0.000221897
5 *266:D *259:B1 3.97211e-05
6 *266:D *259:C1 0.00023086
*RES
1 *259:X *266:D 15.2137 
*END

*D_NET *19 0.00104781
*CONN
*I *272:A I *D sky130_fd_sc_hd__dlygate4sd3_1
*I *263:X O *D sky130_fd_sc_hd__o221a_2
*CAP
1 *272:A 0.000453061
2 *263:X 0.000453061
3 *272:A *244:A 1.39456e-05
4 *272:A *254:B1 0
5 *272:A *267:D 1.43717e-05
6 *272:A *289:A 0.000113372
*RES
1 *263:X *272:A 12.48 
*END

*D_NET *20 0.00595676
*CONN
*I *254:B1 I *D sky130_fd_sc_hd__o2bb2a_2
*I *250:A2 I *D sky130_fd_sc_hd__a211o_2
*I *262:A1 I *D sky130_fd_sc_hd__a211o_2
*I *258:A2 I *D sky130_fd_sc_hd__a2111o_2
*I *244:Y O *D sky130_fd_sc_hd__inv_2
*CAP
1 *254:B1 0.000457634
2 *250:A2 0
3 *262:A1 0.000386951
4 *258:A2 4.6668e-05
5 *244:Y 0.00012642
6 *20:25 0.000855785
7 *20:15 0.000926468
8 *20:6 0.000173088
9 *254:B1 *244:A 1.03572e-05
10 *254:B1 *254:B2 5.7706e-05
11 *254:B1 *257:C 0.000659239
12 *254:B1 *289:A 0
13 *254:B1 *43:12 2.82846e-05
14 *258:A2 *258:B1 4.66108e-05
15 *258:A2 *43:12 0.000197269
16 *258:A2 *55:101 8.43862e-05
17 *262:A1 *250:A1 5.96203e-05
18 *262:A1 *251:B2 0.00040515
19 *262:A1 *260:C 4.31921e-05
20 *262:A1 *262:B1 7.39828e-05
21 *262:A1 *263:B2 2.68464e-05
22 *262:A1 *273:A 1.05476e-05
23 *20:6 *244:A 9.27495e-05
24 *20:6 *43:12 4.66108e-05
25 *20:6 *55:101 3.83194e-05
26 *20:25 *248:B 0.000113752
27 *20:25 *250:A1 8.65961e-05
28 *20:25 *251:B1 1.61831e-05
29 *20:25 *254:B2 0.000131871
30 *20:25 *258:B1 0
31 *20:25 *24:8 0.000163204
32 *20:25 *24:12 0.000251608
33 *20:25 *43:12 0.000291365
34 *272:A *254:B1 0
35 *274:A *20:25 4.82919e-05
36 *278:A *262:A1 0
*RES
1 *244:Y *20:6 4.12 
2 *20:6 *258:A2 3.43 
3 *20:6 *20:15 2 
4 *20:15 *20:25 13.715 
5 *20:25 *262:A1 16.11 
6 *20:25 *250:A2 1.6 
7 *20:15 *254:B1 13.695 
*END

*D_NET *21 0.00541699
*CONN
*I *259:C1 I *D sky130_fd_sc_hd__o211a_2
*I *255:C1 I *D sky130_fd_sc_hd__o221a_2
*I *263:C1 I *D sky130_fd_sc_hd__o221a_2
*I *251:C1 I *D sky130_fd_sc_hd__o221a_2
*I *245:Y O *D sky130_fd_sc_hd__inv_2
*CAP
1 *259:C1 0.000452834
2 *255:C1 5.46772e-05
3 *263:C1 0
4 *251:C1 0.000277855
5 *245:Y 7.69903e-05
6 *21:18 0.000717122
7 *21:10 0.000549378
8 *21:6 0.000585259
9 *251:C1 *250:A1 0.000426617
10 *251:C1 *259:B1 1.88602e-05
11 *251:C1 *262:B1 1.05476e-05
12 *251:C1 *263:B1 9.50342e-06
13 *255:C1 *254:A2_N 0.000110247
14 *255:C1 *255:B1 0.000149992
15 *259:C1 *259:A2 4.54469e-05
16 *259:C1 *259:B1 2.60986e-05
17 *21:10 *252:B 4.08545e-05
18 *21:10 *252:C 0
19 *21:10 *41:8 0.00011099
20 *21:18 *252:B 2.97802e-05
21 *21:18 *260:A 0.000208119
22 *21:18 *260:B 7.08554e-05
23 *21:18 *261:C 0.000113572
24 *21:18 *25:16 1.14169e-05
25 *21:18 *41:8 2.06767e-05
26 *21:18 *55:30 5.18694e-05
27 *21:18 *55:48 0.000263613
28 *21:18 *55:59 0.00015518
29 *21:18 *55:70 0.000221216
30 *266:D *259:C1 0.00023086
31 *12:10 *259:C1 0.00037656
*RES
1 *245:Y *21:6 2.395 
2 *21:6 *21:10 3.38 
3 *21:10 *21:18 12.8 
4 *21:18 *251:C1 11.57 
5 *21:18 *263:C1 1.6 
6 *21:10 *255:C1 5.55 
7 *21:6 *259:C1 14.57 
*END

*D_NET *22 0.00207042
*CONN
*I *250:B1 I *D sky130_fd_sc_hd__a211o_2
*I *246:X O *D sky130_fd_sc_hd__and3_2
*CAP
1 *250:B1 0.000436227
2 *246:X 0.000436227
3 *250:B1 *260:C 0.000158532
4 *250:B1 *262:B1 0.000175768
5 *250:B1 *262:C1 0.000449048
6 *250:B1 *55:30 0.000177275
7 *278:A *250:B1 0.000228242
8 *281:A *250:B1 9.09788e-06
*RES
1 *246:X *250:B1 17.34 
*END

*D_NET *23 0.00143437
*CONN
*I *251:B2 I *D sky130_fd_sc_hd__o221a_2
*I *247:X O *D sky130_fd_sc_hd__and3b_2
*CAP
1 *251:B2 0.000362436
2 *247:X 0.000362436
3 *251:B2 *251:B1 6.03947e-06
4 *251:B2 *262:A2 7.89178e-05
5 *251:B2 *262:B1 4.03507e-05
6 *251:B2 *262:C1 9.18707e-05
7 *251:B2 *263:B2 3.30224e-05
8 *251:B2 *45:8 5.41478e-05
9 *262:A1 *251:B2 0.00040515
*RES
1 *247:X *251:B2 10.91 
*END

*D_NET *24 0.00415382
*CONN
*I *258:B1 I *D sky130_fd_sc_hd__a2111o_2
*I *262:B1 I *D sky130_fd_sc_hd__a211o_2
*I *250:C1 I *D sky130_fd_sc_hd__a211o_2
*I *248:Y O *D sky130_fd_sc_hd__nor2_2
*CAP
1 *258:B1 0.000286946
2 *262:B1 0.000197004
3 *250:C1 6.01778e-05
4 *248:Y 7.9131e-05
5 *24:12 0.000368314
6 *24:8 0.00047721
7 *250:C1 *248:A 8.4841e-05
8 *250:C1 *250:A1 2.61183e-06
9 *258:B1 *251:A2 0
10 *258:B1 *254:B2 0.000312778
11 *258:B1 *263:A1 2.75145e-05
12 *258:B1 *264:D 0
13 *258:B1 *267:CLK 0.00013521
14 *258:B1 *36:19 1.94636e-05
15 *258:B1 *43:12 3.63661e-05
16 *258:B1 *55:101 0.000158066
17 *262:B1 *262:A2 1.37328e-05
18 *262:B1 *262:C1 0.000169257
19 *262:B1 *263:B2 0.000265744
20 *24:8 *248:A 3.23663e-05
21 *24:8 *248:B 1.16578e-05
22 *24:12 *248:A 0.000514184
23 *24:12 *250:A1 2.20014e-05
24 *250:B1 *262:B1 0.000175768
25 *251:B2 *262:B1 4.03507e-05
26 *251:C1 *262:B1 1.05476e-05
27 *258:A2 *258:B1 4.66108e-05
28 *262:A1 *262:B1 7.39828e-05
29 *274:A *258:B1 7.63204e-05
30 *274:A *24:12 3.00381e-05
31 *281:A *262:B1 1.08129e-05
32 *20:25 *258:B1 0
33 *20:25 *24:8 0.000163204
34 *20:25 *24:12 0.000251608
*RES
1 *248:Y *24:8 3.79 
2 *24:8 *24:12 5.205 
3 *24:12 *250:C1 2.755 
4 *24:12 *262:B1 11.39 
5 *24:8 *258:B1 13.16 
*END

*D_NET *25 0.00404412
*CONN
*I *259:A2 I *D sky130_fd_sc_hd__o211a_2
*I *255:A2 I *D sky130_fd_sc_hd__o221a_2
*I *263:A2 I *D sky130_fd_sc_hd__o221a_2
*I *251:A2 I *D sky130_fd_sc_hd__o221a_2
*I *249:X O *D sky130_fd_sc_hd__or2_2
*CAP
1 *259:A2 0.00028471
2 *255:A2 4.412e-05
3 *263:A2 0
4 *251:A2 0.000201637
5 *249:X 3.63162e-05
6 *25:38 0.00059515
7 *25:16 0.000515879
8 *25:8 0.000616879
9 *251:A2 *250:A1 1.26626e-05
10 *251:A2 *263:A1 0.000162325
11 *251:A2 *263:B2 0.000350986
12 *251:A2 *264:D 0.000139245
13 *251:A2 *36:19 9.62014e-05
14 *255:A2 *254:A2_N 1.83847e-05
15 *255:A2 *255:B1 1.51148e-05
16 *259:A2 *259:B1 8.5193e-05
17 *25:16 *263:B1 0.000382856
18 *25:38 *255:B2 0.00011664
19 *25:38 *263:B1 9.10613e-05
20 *258:B1 *251:A2 0
21 *259:C1 *259:A2 4.54469e-05
22 *266:D *259:A2 0.000221897
23 *12:10 *259:A2 0
24 *12:10 *25:38 0
25 *21:18 *25:16 1.14169e-05
*RES
1 *249:X *25:8 4.05 
2 *25:8 *25:16 8.03 
3 *25:16 *251:A2 11.825 
4 *25:16 *263:A2 1.6 
5 *25:8 *25:38 4.74 
6 *25:38 *255:A2 4.41 
7 *25:38 *259:A2 9.57 
*END

*D_NET *26 0.000476088
*CONN
*I *251:B1 I *D sky130_fd_sc_hd__o221a_2
*I *250:X O *D sky130_fd_sc_hd__a211o_2
*CAP
1 *251:B1 7.99732e-05
2 *250:X 7.99732e-05
3 *251:B1 *250:A1 0.000145076
4 *251:B1 *264:D 0.000137578
5 *251:B1 *45:8 1.12643e-05
6 *251:B2 *251:B1 6.03947e-06
7 *20:25 *251:B1 1.61831e-05
*RES
1 *250:X *251:B1 9.39375 
*END

*D_NET *27 0.000895727
*CONN
*I *255:B1 I *D sky130_fd_sc_hd__o221a_2
*I *252:X O *D sky130_fd_sc_hd__and3_2
*CAP
1 *255:B1 0.000258064
2 *252:X 0.000258064
3 *255:B1 *252:B 0.00016031
4 *255:B1 *253:A_N 2.68464e-05
5 *255:B1 *254:A2_N 2.73371e-05
6 *255:A2 *255:B1 1.51148e-05
7 *255:C1 *255:B1 0.000149992
*RES
1 *252:X *255:B1 8.43125 
*END

*D_NET *28 0.000866162
*CONN
*I *254:A2_N I *D sky130_fd_sc_hd__o2bb2a_2
*I *253:Y O *D sky130_fd_sc_hd__nand2b_2
*CAP
1 *254:A2_N 0.00029855
2 *253:Y 0.00029855
3 *254:A2_N *254:A1_N 1.39373e-05
4 *254:A2_N *255:B2 4.95778e-05
5 *255:A2 *254:A2_N 1.83847e-05
6 *255:B1 *254:A2_N 2.73371e-05
7 *255:C1 *254:A2_N 0.000110247
8 *12:10 *254:A2_N 4.95778e-05
*RES
1 *253:Y *254:A2_N 11.985 
*END

*D_NET *29 0.000350601
*CONN
*I *255:B2 I *D sky130_fd_sc_hd__o221a_2
*I *254:X O *D sky130_fd_sc_hd__o2bb2a_2
*CAP
1 *255:B2 7.78074e-05
2 *254:X 7.78074e-05
3 *255:B2 *254:A1_N 2.87688e-05
4 *254:A2_N *255:B2 4.95778e-05
5 *12:10 *255:B2 0
6 *25:38 *255:B2 0.00011664
*RES
1 *254:X *255:B2 9.03 
*END

*D_NET *30 0.00176445
*CONN
*I *258:C1 I *D sky130_fd_sc_hd__a2111o_2
*I *256:X O *D sky130_fd_sc_hd__and3_2
*CAP
1 *258:C1 0.000265637
2 *256:X 0.000265637
3 *258:C1 *257:A_N 8.70502e-05
4 *258:C1 *257:C 4.78975e-05
5 *258:C1 *258:D1 0.000107363
6 *258:C1 *263:A1 7.00889e-06
7 *258:C1 *55:6 0.000385783
8 *258:C1 *55:26 8.50395e-05
9 *258:C1 *55:92 0.000119246
10 *258:C1 *55:101 0.00034324
11 *284:A *258:C1 5.05437e-05
*RES
1 *256:X *258:C1 11.585 
*END

*D_NET *31 0.000412072
*CONN
*I *258:D1 I *D sky130_fd_sc_hd__a2111o_2
*I *257:X O *D sky130_fd_sc_hd__and3b_2
*CAP
1 *258:D1 5.57113e-05
2 *257:X 5.57113e-05
3 *258:D1 *257:C 0.000193286
4 *258:C1 *258:D1 0.000107363
*RES
1 *257:X *258:D1 5.03 
*END

*D_NET *32 0.00434953
*CONN
*I *259:B1 I *D sky130_fd_sc_hd__o211a_2
*I *258:X O *D sky130_fd_sc_hd__a2111o_2
*CAP
1 *259:B1 0.002027
2 *258:X 0.002027
3 *259:B1 *250:A1 1.88602e-05
4 *251:C1 *259:B1 1.88602e-05
5 *259:A2 *259:B1 8.5193e-05
6 *259:C1 *259:B1 2.60986e-05
7 *266:D *259:B1 3.97211e-05
8 *12:10 *259:B1 0.000106788
*RES
1 *258:X *259:B1 13.1584 
*END

*D_NET *33 0.00129244
*CONN
*I *262:C1 I *D sky130_fd_sc_hd__a211o_2
*I *260:X O *D sky130_fd_sc_hd__and3_2
*CAP
1 *262:C1 0.00029113
2 *260:X 0.00029113
3 *250:B1 *262:C1 0.000449048
4 *251:B2 *262:C1 9.18707e-05
5 *262:B1 *262:C1 0.000169257
*RES
1 *260:X *262:C1 14.145 
*END

*D_NET *34 0.0013236
*CONN
*I *263:B1 I *D sky130_fd_sc_hd__o221a_2
*I *261:X O *D sky130_fd_sc_hd__and3b_2
*CAP
1 *263:B1 0.000301293
2 *261:X 0.000301293
3 *263:B1 *250:A1 0.000207842
4 *263:B1 *254:A1_N 2.97522e-05
5 *251:C1 *263:B1 9.50342e-06
6 *25:16 *263:B1 0.000382856
7 *25:38 *263:B1 9.10613e-05
*RES
1 *261:X *263:B1 14.1562 
*END

*D_NET *35 0.00263964
*CONN
*I *263:B2 I *D sky130_fd_sc_hd__o221a_2
*I *262:X O *D sky130_fd_sc_hd__a211o_2
*CAP
1 *263:B2 0.000636324
2 *262:X 0.000636324
3 *263:B2 *250:A1 0.000390011
4 *263:B2 *262:A2 8.40213e-05
5 *263:B2 *264:D 9.54399e-05
6 *263:B2 *45:8 0.000120923
7 *251:A2 *263:B2 0.000350986
8 *251:B2 *263:B2 3.30224e-05
9 *262:A1 *263:B2 2.68464e-05
10 *262:B1 *263:B2 0.000265744
*RES
1 *262:X *263:B2 19.185 
*END

*D_NET *36 0.00314475
*CONN
*I *270:A I *D sky130_fd_sc_hd__clkbuf_16
*I *269:A I *D sky130_fd_sc_hd__clkbuf_16
*I *268:X O *D sky130_fd_sc_hd__clkbuf_16
*CAP
1 *270:A 6.74309e-05
2 *269:A 0
3 *268:X 1.64908e-05
4 *36:31 0.000344785
5 *36:19 0.000418223
6 *36:13 0.000978355
7 *36:6 0.000299269
8 *270:A *287:A 7.10578e-05
9 *36:19 *250:A1 0
10 *36:19 *254:B2 2.47287e-05
11 *36:19 *263:A1 8.78813e-05
12 *36:19 *267:CLK 0.000178666
13 *36:31 *254:B2 3.14077e-05
14 *36:31 *265:CLK 0.000121152
15 *36:31 *265:D 0
16 *36:31 *38:10 6.18754e-05
17 *36:31 *47:10 0
18 Q[1] *36:19 5.50989e-05
19 *251:A2 *36:19 9.62014e-05
20 *258:B1 *36:19 1.94636e-05
21 *12:10 *36:19 2.2016e-05
22 *12:10 *36:31 0.000250644
*RES
1 *268:X *36:6 1.8775 
2 *36:6 *36:13 5.7275 
3 *36:13 *36:19 9.585 
4 *36:19 *269:A 3.6 
5 *36:13 *36:31 7.5 
6 *36:31 *270:A 4.74 
*END

*D_NET *37 0.00163974
*CONN
*I *267:CLK I *D sky130_fd_sc_hd__dfxtp_2
*I *264:CLK I *D sky130_fd_sc_hd__dfxtp_2
*I *269:X O *D sky130_fd_sc_hd__clkbuf_16
*CAP
1 *267:CLK 0.000122534
2 *264:CLK 5.37282e-05
3 *269:X 0.000251892
4 *37:10 0.000428154
5 *264:CLK *289:A 6.97118e-05
6 *267:CLK *254:B2 2.25106e-05
7 *37:10 *289:A 0.000227733
8 Q[1] *267:CLK 0.000149604
9 *258:B1 *267:CLK 0.00013521
10 *36:19 *267:CLK 0.000178666
*RES
1 *269:X *37:10 6.31 
2 *37:10 *264:CLK 2.74 
3 *37:10 *267:CLK 9.53 
*END

*D_NET *38 0.00120059
*CONN
*I *266:CLK I *D sky130_fd_sc_hd__dfxtp_2
*I *265:CLK I *D sky130_fd_sc_hd__dfxtp_2
*I *270:X O *D sky130_fd_sc_hd__clkbuf_16
*CAP
1 *266:CLK 0
2 *265:CLK 9.44023e-05
3 *270:X 0.000343511
4 *38:10 0.000437913
5 *265:CLK *255:A1 4.99619e-05
6 *265:CLK *47:10 5.72091e-05
7 *38:10 *287:A 3.45679e-05
8 *36:31 *265:CLK 0.000121152
9 *36:31 *38:10 6.18754e-05
*RES
1 *270:X *38:10 8.19 
2 *38:10 *265:CLK 6.45 
3 *38:10 *266:CLK 3.6 
*END

*D_NET *39 0.00162863
*CONN
*I *246:C I *D sky130_fd_sc_hd__and3_2
*I *278:X O *D sky130_fd_sc_hd__clkdlybuf4s25_1
*CAP
1 *246:C 0.000461717
2 *278:X 0.000461717
3 *246:C *260:A 1.46744e-05
4 *246:C *260:C 4.77757e-05
5 *246:C *54:19 0.000166346
6 *246:C *54:34 0.000438979
7 *246:C *54:87 3.74161e-05
*RES
1 *278:X *246:C 14.7 
*END

*D_NET *40 0.00469968
*CONN
*I *275:A I *D sky130_fd_sc_hd__dlygate4sd3_1
*I *286:A I *D sky130_fd_sc_hd__clkdlybuf4s25_1
*I *250:A1 I *D sky130_fd_sc_hd__a211o_2
*I *265:Q O *D sky130_fd_sc_hd__dfxtp_2
*CAP
1 *275:A 0.000235243
2 *286:A 0
3 *250:A1 0.00050764
4 *265:Q 0
5 *40:14 0.00134149
6 *40:6 0.0010691
7 *250:A1 *264:D 1.7902e-05
8 *40:14 *289:A 0
9 Q[0] *40:14 0.000156409
10 *250:C1 *250:A1 2.61183e-06
11 *251:A2 *250:A1 1.26626e-05
12 *251:B1 *250:A1 0.000145076
13 *251:C1 *250:A1 0.000426617
14 *259:B1 *250:A1 1.88602e-05
15 *262:A1 *250:A1 5.96203e-05
16 *263:B1 *250:A1 0.000207842
17 *263:B2 *250:A1 0.000390011
18 *274:A *250:A1 0
19 *276:A *40:14 0
20 *20:25 *250:A1 8.65961e-05
21 *24:12 *250:A1 2.20014e-05
22 *36:19 *250:A1 0
*RES
1 *265:Q *40:6 3.6 
2 *40:6 *40:14 15.425 
3 *40:14 *250:A1 18.41 
4 *40:14 *286:A 1.6 
5 *40:6 *275:A 7.395 
*END

*D_NET *41 0.00228809
*CONN
*I *287:A I *D sky130_fd_sc_hd__clkdlybuf4s25_1
*I *277:A I *D sky130_fd_sc_hd__dlygate4sd3_1
*I *253:B I *D sky130_fd_sc_hd__nand2b_2
*I *261:C I *D sky130_fd_sc_hd__and3b_2
*I *266:Q O *D sky130_fd_sc_hd__dfxtp_2
*CAP
1 *287:A 0.000294557
2 *277:A 0
3 *253:B 0
4 *261:C 0.000127801
5 *266:Q 0
6 *41:32 0.000620423
7 *41:8 0.000272565
8 *41:6 0.000470629
9 *261:C *254:A1_N 5.28512e-05
10 *41:8 *245:A 3.03586e-05
11 *41:8 *252:C 0
12 *41:32 *245:A 6.80428e-05
13 *270:A *287:A 7.10578e-05
14 *12:10 *287:A 0
15 *21:10 *41:8 0.00011099
16 *21:18 *261:C 0.000113572
17 *21:18 *41:8 2.06767e-05
18 *38:10 *287:A 3.45679e-05
*RES
1 *266:Q *41:6 3.6 
2 *41:6 *41:8 2.91 
3 *41:8 *261:C 5.80875 
4 *41:8 *253:B 3.6 
5 *41:6 *41:32 6.845 
6 *41:32 *277:A 1.6 
7 *41:32 *287:A 10.61 
*END

*D_NET *42 0.00144325
*CONN
*I *271:A I *D sky130_fd_sc_hd__dlygate4sd3_1
*I *288:A I *D sky130_fd_sc_hd__clkdlybuf4s25_1
*I *267:Q O *D sky130_fd_sc_hd__dfxtp_2
*CAP
1 *271:A 5.66458e-05
2 *288:A 0.000227473
3 *267:Q 0.000249568
4 *42:8 0.000533686
5 *288:A *248:B 0
6 *42:8 *248:B 0
7 *42:8 *289:A 0
8 Q[3] *288:A 0.00011741
9 Q[3] *42:8 0.000258467
*RES
1 *267:Q *42:8 9.06 
2 *42:8 *288:A 7.83 
3 *42:8 *271:A 4.395 
*END

*D_NET *43 0.0020867
*CONN
*I *258:A1 I *D sky130_fd_sc_hd__a2111o_2
*I *263:A1 I *D sky130_fd_sc_hd__o221a_2
*I *271:X O *D sky130_fd_sc_hd__dlygate4sd3_1
*CAP
1 *258:A1 0
2 *263:A1 0.000104318
3 *271:X 0.00017573
4 *43:12 0.000280048
5 *263:A1 *257:C 8.49205e-05
6 *263:A1 *55:101 1.12578e-05
7 *43:12 *244:A 6.35586e-05
8 *43:12 *248:B 0.00024756
9 *43:12 *257:C 0.000234685
10 *251:A2 *263:A1 0.000162325
11 *254:B1 *43:12 2.82846e-05
12 *258:A2 *43:12 0.000197269
13 *258:B1 *263:A1 2.75145e-05
14 *258:B1 *43:12 3.63661e-05
15 *258:C1 *263:A1 7.00889e-06
16 *20:6 *43:12 4.66108e-05
17 *20:25 *43:12 0.000291365
18 *36:19 *263:A1 8.78813e-05
*RES
1 *271:X *43:12 12.14 
2 *43:12 *263:A1 8.735 
3 *43:12 *258:A1 1.6 
*END

*D_NET *44 0.00027714
*CONN
*I *267:D I *D sky130_fd_sc_hd__dfxtp_2
*I *272:X O *D sky130_fd_sc_hd__dlygate4sd3_1
*CAP
1 *267:D 3.74754e-05
2 *272:X 3.74754e-05
3 *267:D *254:B2 9.47454e-05
4 *267:D *257:C 9.30717e-05
5 *272:A *267:D 1.43717e-05
*RES
1 *272:X *267:D 8.46375 
*END

*D_NET *45 0.00295967
*CONN
*I *254:B2 I *D sky130_fd_sc_hd__o2bb2a_2
*I *251:A1 I *D sky130_fd_sc_hd__o221a_2
*I *273:X O *D sky130_fd_sc_hd__dlygate4sd3_1
*CAP
1 *254:B2 0.000607831
2 *251:A1 0
3 *273:X 0.000155411
4 *45:8 0.000763241
5 *254:B2 *257:C 0.000289397
6 Q[1] *254:B2 0.000281711
7 *251:B1 *45:8 1.12643e-05
8 *251:B2 *45:8 5.41478e-05
9 *254:B1 *254:B2 5.7706e-05
10 *258:B1 *254:B2 0.000312778
11 *263:B2 *45:8 0.000120923
12 *267:CLK *254:B2 2.25106e-05
13 *267:D *254:B2 9.47454e-05
14 *20:25 *254:B2 0.000131871
15 *36:19 *254:B2 2.47287e-05
16 *36:31 *254:B2 3.14077e-05
*RES
1 *273:X *45:8 4.48 
2 *45:8 *251:A1 1.6 
3 *45:8 *254:B2 20.15 
*END

*D_NET *46 0.000664907
*CONN
*I *264:D I *D sky130_fd_sc_hd__dfxtp_2
*I *274:X O *D sky130_fd_sc_hd__dlygate4sd3_1
*CAP
1 *264:D 0.000135615
2 *274:X 0.000135615
3 *264:D *289:A 3.51254e-06
4 *250:A1 *264:D 1.7902e-05
5 *251:A2 *264:D 0.000139245
6 *251:B1 *264:D 0.000137578
7 *258:B1 *264:D 0
8 *263:B2 *264:D 9.54399e-05
9 *274:A *264:D 0
*RES
1 *274:X *264:D 10.5037 
*END

*D_NET *47 0.00398718
*CONN
*I *255:A1 I *D sky130_fd_sc_hd__o221a_2
*I *257:C I *D sky130_fd_sc_hd__and3b_2
*I *275:X O *D sky130_fd_sc_hd__dlygate4sd3_1
*CAP
1 *255:A1 0.000177664
2 *257:C 0.000631813
3 *275:X 0.000141551
4 *47:10 0.000951028
5 *255:A1 *265:D 1.43717e-05
6 *257:C *265:D 9.18792e-05
7 *254:B1 *257:C 0.000659239
8 *254:B2 *257:C 0.000289397
9 *258:C1 *257:C 4.78975e-05
10 *258:D1 *257:C 0.000193286
11 *263:A1 *257:C 8.49205e-05
12 *265:CLK *255:A1 4.99619e-05
13 *265:CLK *47:10 5.72091e-05
14 *267:D *257:C 9.30717e-05
15 *276:A *255:A1 0.000269209
16 *276:A *257:C 0
17 *36:31 *47:10 0
18 *43:12 *257:C 0.000234685
*RES
1 *275:X *47:10 5.94 
2 *47:10 *257:C 18.9375 
3 *47:10 *255:A1 7.995 
*END

*D_NET *48 0.000239518
*CONN
*I *265:D I *D sky130_fd_sc_hd__dfxtp_2
*I *276:X O *D sky130_fd_sc_hd__dlygate4sd3_1
*CAP
1 *265:D 5.94478e-05
2 *276:X 5.94478e-05
3 *255:A1 *265:D 1.43717e-05
4 *257:C *265:D 9.18792e-05
5 *276:A *265:D 1.43717e-05
6 *36:31 *265:D 0
*RES
1 *276:X *265:D 8.46375 
*END

*D_NET *49 0.000387708
*CONN
*I *259:A1 I *D sky130_fd_sc_hd__o211a_2
*I *277:X O *D sky130_fd_sc_hd__dlygate4sd3_1
*CAP
1 *259:A1 0.000162345
2 *277:X 0.000162345
3 *266:D *259:A1 6.30172e-05
*RES
1 *277:X *259:A1 9.8475 
*END

*D_NET *50 0.000965621
*CONN
*I *252:C I *D sky130_fd_sc_hd__and3_2
*I *279:X O *D sky130_fd_sc_hd__clkdlybuf4s25_1
*CAP
1 *252:C 0.000477129
2 *279:X 0.000477129
3 *252:C *245:A 0
4 *252:C *252:A 5.53249e-06
5 *252:C *252:B 0
6 *252:C *55:70 0
7 *279:A *252:C 5.83121e-06
8 *21:10 *252:C 0
9 *41:8 *252:C 0
*RES
1 *279:X *252:C 13.65 
*END

*D_NET *51 0.00153056
*CONN
*I *256:C I *D sky130_fd_sc_hd__and3_2
*I *280:X O *D sky130_fd_sc_hd__clkdlybuf4s25_1
*CAP
1 *256:C 0.000487815
2 *280:X 0.000487815
3 *256:C *247:B 0.000250609
4 *256:C *257:A_N 0
5 *256:C *260:C 0
6 *256:C *53:12 0.000160635
7 *256:C *54:19 0.000140713
8 *256:C *54:34 2.97004e-06
9 *284:A *256:C 0
*RES
1 *280:X *256:C 15.375 
*END

*D_NET *52 0.00228993
*CONN
*I *260:C I *D sky130_fd_sc_hd__and3_2
*I *281:X O *D sky130_fd_sc_hd__clkdlybuf4s25_1
*CAP
1 *260:C 0.000508233
2 *281:X 0.000508233
3 *260:C *257:A_N 6.10014e-05
4 *260:C *260:A 0.000383619
5 *260:C *273:A 0
6 *260:C *54:49 4.43871e-06
7 *260:C *55:30 0
8 *246:C *260:C 4.77757e-05
9 *250:B1 *260:C 0.000158532
10 *256:C *260:C 0
11 *262:A1 *260:C 4.31921e-05
12 *278:A *260:C 0
13 *280:A *260:C 0
14 *284:A *260:C 0.0005749
*RES
1 *281:X *260:C 19.02 
*END

*D_NET *53 0.00120253
*CONN
*I *262:A2 I *D sky130_fd_sc_hd__a211o_2
*I *247:C I *D sky130_fd_sc_hd__and3b_2
*I *282:X O *D sky130_fd_sc_hd__clkdlybuf4s25_1
*CAP
1 *262:A2 0.000142935
2 *247:C 0
3 *282:X 0.000135703
4 *53:12 0.000278637
5 *53:12 *54:10 0.000143266
6 *53:12 *54:19 2.14129e-05
7 *251:B2 *262:A2 7.89178e-05
8 *256:C *53:12 0.000160635
9 *262:B1 *262:A2 1.37328e-05
10 *263:B2 *262:A2 8.40213e-05
11 *280:A *53:12 0.000143266
*RES
1 *282:X *53:12 9.35375 
2 *53:12 *247:C 1.6 
3 *53:12 *262:A2 4.44625 
*END

*D_NET *54 0.0100086
*CONN
*I *248:A I *D sky130_fd_sc_hd__nor2_2
*I *260:A I *D sky130_fd_sc_hd__and3_2
*I *246:A I *D sky130_fd_sc_hd__and3_2
*I *252:A I *D sky130_fd_sc_hd__and3_2
*I *254:A1_N I *D sky130_fd_sc_hd__o2bb2a_2
*I *261:A_N I *D sky130_fd_sc_hd__and3b_2
*I *249:A I *D sky130_fd_sc_hd__or2_2
*I *257:A_N I *D sky130_fd_sc_hd__and3b_2
*I *256:A I *D sky130_fd_sc_hd__and3_2
*I *247:A_N I *D sky130_fd_sc_hd__and3b_2
*I *283:X O *D sky130_fd_sc_hd__clkdlybuf4s25_1
*CAP
1 *248:A 0.000951386
2 *260:A 0.000167331
3 *246:A 0
4 *252:A 9.98475e-05
5 *254:A1_N 0.000184766
6 *261:A_N 0
7 *249:A 0.000277422
8 *257:A_N 0.000196074
9 *256:A 3.61853e-05
10 *247:A_N 0
11 *283:X 0.000275815
12 *54:87 0.000183719
13 *54:64 0.000396853
14 *54:60 0.000458153
15 *54:49 0.000695135
16 *54:36 0.000467568
17 *54:34 0.000190668
18 *54:19 0.000375688
19 *54:10 0.000317978
20 *54:6 0.00137996
21 *249:A *249:B 8.35106e-05
22 *252:A *55:70 0
23 *254:A1_N *261:B 5.65797e-05
24 *260:A *246:B 7.87003e-05
25 *260:A *260:B 9.47972e-06
26 *54:10 *247:B 0
27 *54:19 *247:B 0
28 *54:49 *55:30 0
29 *54:49 *55:48 0
30 *54:64 *261:B 3.64998e-06
31 *246:C *260:A 1.46744e-05
32 *246:C *54:19 0.000166346
33 *246:C *54:34 0.000438979
34 *246:C *54:87 3.74161e-05
35 *250:C1 *248:A 8.4841e-05
36 *252:C *252:A 5.53249e-06
37 *254:A2_N *254:A1_N 1.39373e-05
38 *255:B2 *254:A1_N 2.87688e-05
39 *256:C *257:A_N 0
40 *256:C *54:19 0.000140713
41 *256:C *54:34 2.97004e-06
42 *258:C1 *257:A_N 8.70502e-05
43 *260:C *257:A_N 6.10014e-05
44 *260:C *260:A 0.000383619
45 *260:C *54:49 4.43871e-06
46 *261:C *254:A1_N 5.28512e-05
47 *263:B1 *254:A1_N 2.97522e-05
48 *280:A *54:10 1.15688e-05
49 *282:A *248:A 0.00018872
50 *283:A *248:A 0.000314745
51 *283:A *54:6 8.65905e-05
52 *284:A *257:A_N 4.82863e-05
53 *284:A *54:10 0
54 *21:18 *260:A 0.000208119
55 *24:8 *248:A 3.23663e-05
56 *24:12 *248:A 0.000514184
57 *53:12 *54:10 0.000143266
58 *53:12 *54:19 2.14129e-05
*RES
1 *283:X *54:6 4.81 
2 *54:6 *54:10 4.91 
3 *54:10 *247:A_N 3.6 
4 *54:10 *54:19 4.44 
5 *54:19 *256:A 4.05 
6 *54:19 *54:34 6.59 
7 *54:34 *54:36 2 
8 *54:36 *257:A_N 7.5 
9 *54:36 *54:49 4.44 
10 *54:49 *249:A 7.845 
11 *54:49 *54:60 2.4 
12 *54:60 *54:64 4.865 
13 *54:64 *261:A_N 1.6 
14 *54:64 *254:A1_N 5.2675 
15 *54:60 *252:A 5.235 
16 *54:34 *54:87 0.45 
17 *54:87 *246:A 1.6 
18 *54:87 *260:A 6.91 
19 *54:6 *248:A 14.74 
*END

*D_NET *55 0.00913419
*CONN
*I *244:A I *D sky130_fd_sc_hd__inv_2
*I *248:B I *D sky130_fd_sc_hd__nor2_2
*I *257:B I *D sky130_fd_sc_hd__and3b_2
*I *252:B I *D sky130_fd_sc_hd__and3_2
*I *253:A_N I *D sky130_fd_sc_hd__nand2b_2
*I *261:B I *D sky130_fd_sc_hd__and3b_2
*I *249:B I *D sky130_fd_sc_hd__or2_2
*I *260:B I *D sky130_fd_sc_hd__and3_2
*I *246:B I *D sky130_fd_sc_hd__and3_2
*I *247:B I *D sky130_fd_sc_hd__and3b_2
*I *256:B I *D sky130_fd_sc_hd__and3_2
*I *284:X O *D sky130_fd_sc_hd__clkdlybuf4s25_1
*CAP
1 *244:A 0.000151248
2 *248:B 0.000297298
3 *257:B 0
4 *252:B 0.000206132
5 *253:A_N 2.48204e-05
6 *261:B 0.000121484
7 *249:B 4.80843e-05
8 *260:B 0.000114241
9 *246:B 0.000142213
10 *247:B 0.000200639
11 *256:B 4.78064e-05
12 *284:X 0
13 *55:101 0.000985049
14 *55:92 0.000619726
15 *55:70 0.000343312
16 *55:59 0.000318602
17 *55:48 0.000264211
18 *55:32 0.000256454
19 *55:30 0.000299441
20 *55:26 0.000304493
21 *55:6 0.000537847
22 *55:4 0.000342601
23 *244:A *289:A 2.46273e-05
24 *248:B *289:A 2.46089e-05
25 *249:A *249:B 8.35106e-05
26 *250:B1 *55:30 0.000177275
27 *252:A *55:70 0
28 *252:C *252:B 0
29 *252:C *55:70 0
30 *254:A1_N *261:B 5.65797e-05
31 *254:B1 *244:A 1.03572e-05
32 *255:B1 *252:B 0.00016031
33 *255:B1 *253:A_N 2.68464e-05
34 *256:C *247:B 0.000250609
35 *258:A2 *55:101 8.43862e-05
36 *258:B1 *55:101 0.000158066
37 *258:C1 *55:6 0.000385783
38 *258:C1 *55:26 8.50395e-05
39 *258:C1 *55:92 0.000119246
40 *258:C1 *55:101 0.00034324
41 *260:A *246:B 7.87003e-05
42 *260:A *260:B 9.47972e-06
43 *260:C *55:30 0
44 *263:A1 *55:101 1.12578e-05
45 *272:A *244:A 1.39456e-05
46 *284:A *247:B 0
47 *288:A *248:B 0
48 *20:6 *244:A 9.27495e-05
49 *20:6 *55:101 3.83194e-05
50 *20:25 *248:B 0.000113752
51 *21:10 *252:B 4.08545e-05
52 *21:18 *252:B 2.97802e-05
53 *21:18 *260:B 7.08554e-05
54 *21:18 *55:30 5.18694e-05
55 *21:18 *55:48 0.000263613
56 *21:18 *55:59 0.00015518
57 *21:18 *55:70 0.000221216
58 *24:8 *248:B 1.16578e-05
59 *42:8 *248:B 0
60 *43:12 *244:A 6.35586e-05
61 *43:12 *248:B 0.00024756
62 *54:10 *247:B 0
63 *54:19 *247:B 0
64 *54:49 *55:30 0
65 *54:49 *55:48 0
66 *54:64 *261:B 3.64998e-06
*RES
1 *284:X *55:4 1.6 
2 *55:4 *55:6 3.9 
3 *55:6 *256:B 2.05 
4 *55:6 *247:B 9.785 
5 *55:4 *55:26 0.795 
6 *55:26 *55:30 5.42 
7 *55:30 *55:32 2 
8 *55:32 *246:B 3.43 
9 *55:32 *260:B 3.085 
10 *55:30 *55:48 3.165 
11 *55:48 *249:B 4.395 
12 *55:48 *55:59 1.89 
13 *55:59 *261:B 5.085 
14 *55:59 *55:70 2.655 
15 *55:70 *253:A_N 4.05 
16 *55:70 *252:B 6.645 
17 *55:26 *55:92 1.14 
18 *55:92 *257:B 1.6 
19 *55:92 *55:101 9.005 
20 *55:101 *248:B 9.765 
21 *55:101 *244:A 6.57 
*END

*D_NET *56 0.000681389
*CONN
*I *245:A I *D sky130_fd_sc_hd__inv_2
*I *285:X O *D sky130_fd_sc_hd__clkdlybuf4s25_1
*CAP
1 *245:A 0.000291494
2 *285:X 0.000291494
3 *252:C *245:A 0
4 *279:A *245:A 0
5 *41:8 *245:A 3.03586e-05
6 *41:32 *245:A 6.80428e-05
*RES
1 *285:X *245:A 11.76 
*END

*D_NET *57 0.0033262
*CONN
*I *289:A I *D sky130_fd_sc_hd__clkdlybuf4s25_1
*I *273:A I *D sky130_fd_sc_hd__dlygate4sd3_1
*I *264:Q O *D sky130_fd_sc_hd__dfxtp_2
*CAP
1 *289:A 0.00121678
2 *273:A 0.000114009
3 *264:Q 0.00133079
4 *244:A *289:A 2.46273e-05
5 *248:B *289:A 2.46089e-05
6 *254:B1 *289:A 0
7 *260:C *273:A 0
8 *262:A1 *273:A 1.05476e-05
9 *264:CLK *289:A 6.97118e-05
10 *264:D *289:A 3.51254e-06
11 *272:A *289:A 0.000113372
12 *278:A *273:A 0.00015751
13 *278:A *289:A 3.29947e-05
14 *37:10 *289:A 0.000227733
15 *40:14 *289:A 0
16 *42:8 *289:A 0
*RES
1 *264:Q *273:A 9.285 
2 *264:Q *289:A 22.68 
*END
